Created by DefectStudio(c) 2024
1.0
-4.7475000000000005 4.7475000000000005 4.7475000000000005
	4.7475000000000005 -4.7475000000000005 4.7475000000000005
	4.7475000000000005 4.7475000000000005 -4.7475000000000005
 W
 27
Direct
0.3333333333333333 0.3333333333333333 0.6666666666666666
0.6666666666666666 0.6666666666666666 0.6666666666666666
0 0 0
0.3333333333333333 0 0
0.6666666666666666 0 0
0 0.3333333333333333 0
0.3333333333333333 0.3333333333333333 0
0.6666666666666666 0.3333333333333333 0
0 0.6666666666666666 0
0.3333333333333333 0.6666666666666666 0
0.6666666666666666 0.6666666666666666 0
0 0 0.3333333333333333
0.3333333333333333 0 0.3333333333333333
0.6666666666666666 0 0.3333333333333333
0 0.3333333333333333 0.3333333333333333
0.3333333333333333 0.3333333333333333 0.3333333333333333
0.6666666666666666 0.3333333333333333 0.3333333333333333
0 0.6666666666666666 0.3333333333333333
0.3333333333333333 0.6666666666666666 0.3333333333333333
0.6666666666666666 0.6666666666666666 0.3333333333333333
0 0 0.6666666666666666
0.3333333333333333 0 0.6666666666666666
0.6666666666666666 0 0.6666666666666666
0 0.3333333333333333 0.6666666666666666
0.6666666666666666 0.3333333333333333 0.6666666666666666
0 0.6666666666666666 0.6666666666666666
0.3333333333333333 0.6666666666666666 0.6666666666666666
