# No title
1.000000
      3.18552872        0.00000000        0.00000000
      0.00000000        3.18552872        0.00000000
      0.00000000        0.00000000        3.18552872
 W
     2
Cartesian
      0.00000000        0.00000000        0.00000000
      1.59276436        1.59276436        1.59276436
