128
Generated from YAML file
W 0.0 0.0 0.0
W 1.5825 1.5825 1.5825
Cr 0.0 0.0 3.165
W 1.5825 1.5825 4.7475000000000005
Cr 0.0 0.0 6.33
W 1.5825 1.5825 7.9125
W 0.0 0.0 9.495000000000001
W 1.5825 1.5825 11.0775
W 0.0 3.165 0.0
W 1.5825 4.7475000000000005 1.5825
W 0.0 3.165 3.165
W 1.5825 4.7475000000000005 4.7475000000000005
Cr 0.0 3.165 6.33
Cr 1.5825 4.7475000000000005 7.9125
W 0.0 3.165 9.495000000000001
Cr 1.5825 4.7475000000000005 11.0775
W 0.0 6.33 0.0
W 1.5825 7.9125 1.5825
W 0.0 6.33 3.165
Cr 1.5825 7.9125 4.7475000000000005
W 0.0 6.33 6.33
W 1.5825 7.9125 7.9125
W 0.0 6.33 9.495000000000001
W 1.5825 7.9125 11.0775
W 0.0 9.495000000000001 0.0
Cr 1.5825 11.0775 1.5825
W 0.0 9.495000000000001 3.165
Cr 1.5825 11.0775 4.7475000000000005
W 0.0 9.495000000000001 6.33
W 1.5825 11.0775 7.9125
W 0.0 9.495000000000001 9.495000000000001
W 1.5825 11.0775 11.0775
Cr 3.165 0.0 0.0
W 4.7475000000000005 1.5825 1.5825
W 3.165 0.0 3.165
W 4.7475000000000005 1.5825 4.7475000000000005
W 3.165 0.0 6.33
W 4.7475000000000005 1.5825 7.9125
W 3.165 0.0 9.495000000000001
W 4.7475000000000005 1.5825 11.0775
Cr 3.165 3.165 0.0
W 4.7475000000000005 4.7475000000000005 1.5825
W 3.165 3.165 3.165
W 4.7475000000000005 4.7475000000000005 4.7475000000000005
W 3.165 3.165 6.33
W 4.7475000000000005 4.7475000000000005 7.9125
W 3.165 3.165 9.495000000000001
Cr 4.7475000000000005 4.7475000000000005 11.0775
W 3.165 6.33 0.0
W 4.7475000000000005 7.9125 1.5825
Cr 3.165 6.33 3.165
W 4.7475000000000005 7.9125 4.7475000000000005
W 3.165 6.33 6.33
W 4.7475000000000005 7.9125 7.9125
W 3.165 6.33 9.495000000000001
W 4.7475000000000005 7.9125 11.0775
W 3.165 9.495000000000001 0.0
W 4.7475000000000005 11.0775 1.5825
W 3.165 9.495000000000001 3.165
W 4.7475000000000005 11.0775 4.7475000000000005
Cr 3.165 9.495000000000001 6.33
W 4.7475000000000005 11.0775 7.9125
W 3.165 9.495000000000001 9.495000000000001
W 4.7475000000000005 11.0775 11.0775
W 6.33 0.0 0.0
Cr 7.9125 1.5825 1.5825
W 6.33 0.0 3.165
Cr 7.9125 1.5825 4.7475000000000005
W 6.33 0.0 6.33
W 7.9125 1.5825 7.9125
W 6.33 0.0 9.495000000000001
W 7.9125 1.5825 11.0775
Cr 6.33 3.165 0.0
W 7.9125 4.7475000000000005 1.5825
W 6.33 3.165 3.165
W 7.9125 4.7475000000000005 4.7475000000000005
W 6.33 3.165 6.33
Cr 7.9125 4.7475000000000005 7.9125
W 6.33 3.165 9.495000000000001
Cr 7.9125 4.7475000000000005 11.0775
W 6.33 6.33 0.0
W 7.9125 7.9125 1.5825
W 6.33 6.33 3.165
W 7.9125 7.9125 4.7475000000000005
W 6.33 6.33 6.33
W 7.9125 7.9125 7.9125
W 6.33 6.33 9.495000000000001
W 7.9125 7.9125 11.0775
W 6.33 9.495000000000001 0.0
W 7.9125 11.0775 1.5825
W 6.33 9.495000000000001 3.165
W 7.9125 11.0775 4.7475000000000005
W 6.33 9.495000000000001 6.33
Cr 7.9125 11.0775 7.9125
W 6.33 9.495000000000001 9.495000000000001
W 7.9125 11.0775 11.0775
W 9.495000000000001 0.0 0.0
W 11.0775 1.5825 1.5825
W 9.495000000000001 0.0 3.165
W 11.0775 1.5825 4.7475000000000005
W 9.495000000000001 0.0 6.33
W 11.0775 1.5825 7.9125
W 9.495000000000001 0.0 9.495000000000001
Cr 11.0775 1.5825 11.0775
W 9.495000000000001 3.165 0.0
W 11.0775 4.7475000000000005 1.5825
W 9.495000000000001 3.165 3.165
W 11.0775 4.7475000000000005 4.7475000000000005
W 9.495000000000001 3.165 6.33
W 11.0775 4.7475000000000005 7.9125
W 9.495000000000001 3.165 9.495000000000001
W 11.0775 4.7475000000000005 11.0775
W 9.495000000000001 6.33 0.0
W 11.0775 7.9125 1.5825
W 9.495000000000001 6.33 3.165
W 11.0775 7.9125 4.7475000000000005
Cr 9.495000000000001 6.33 6.33
W 11.0775 7.9125 7.9125
W 9.495000000000001 6.33 9.495000000000001
W 11.0775 7.9125 11.0775
Cr 9.495000000000001 9.495000000000001 0.0
Cr 11.0775 11.0775 1.5825
W 9.495000000000001 9.495000000000001 3.165
Cr 11.0775 11.0775 4.7475000000000005
W 9.495000000000001 9.495000000000001 6.33
W 11.0775 11.0775 7.9125
W 9.495000000000001 9.495000000000001 9.495000000000001
W 11.0775 11.0775 11.0775
