 # Created by DefectStudio(c) 2024
  
         249  atoms
           1  atom types
 
      0.000000000000      15.927500000000  xlo xhi
      0.000000000000      15.927500000000  ylo yhi
      0.000000000000      15.927500000000  zlo zhi
 
Masses
 
            1   183.84000000            # W
 
Atoms # atomic
 
         1    1        1.592750000000       1.592750000000       1.592750000000
         2    1        3.185500000000       0.000000000000       0.000000000000
         3    1        4.778250000000       1.592750000000       1.592750000000
         4    1        6.371000000000       0.000000000000       0.000000000000
         5    1        7.963750000000       1.592750000000       1.592750000000
         6    1        9.556500000000       0.000000000000       0.000000000000
         7    1       11.149250000000       1.592750000000       1.592750000000
         8    1       12.742000000000       0.000000000000       0.000000000000
         9    1       14.334750000000       1.592750000000       1.592750000000
        10    1       15.927500000000       3.185500000000       0.000000000000
        11    1        1.592750000000       4.778250000000       1.592750000000
        12    1        3.185500000000       3.185500000000       0.000000000000
        13    1        4.778250000000       4.778250000000       1.592750000000
        14    1        6.371000000000       3.185500000000       0.000000000000
        15    1        7.963750000000       4.778250000000       1.592750000000
        16    1        9.556500000000       3.185500000000       0.000000000000
        17    1       11.149250000000       4.778250000000       1.592750000000
        18    1       12.742000000000       3.185500000000       0.000000000000
        19    1       14.334750000000       4.778250000000       1.592750000000
        20    1       15.927500000000       6.371000000000       0.000000000000
        21    1        1.592750000000       7.963750000000       1.592750000000
        22    1        3.185500000000       6.371000000000       0.000000000000
        23    1        4.778250000000       7.963750000000       1.592750000000
        24    1        6.371000000000       6.371000000000       0.000000000000
        25    1        7.963750000000       7.963750000000       1.592750000000
        26    1        9.556500000000       6.371000000000       0.000000000000
        27    1       11.149250000000       7.963750000000       1.592750000000
        28    1       12.742000000000       6.371000000000       0.000000000000
        29    1       14.334750000000       7.963750000000       1.592750000000
        30    1       15.927500000000       9.556500000000       0.000000000000
        31    1        1.592750000000      11.149250000000       1.592750000000
        32    1        3.185500000000       9.556500000000       0.000000000000
        33    1        4.778250000000      11.149250000000       1.592750000000
        34    1        6.371000000000       9.556500000000       0.000000000000
        35    1        7.963750000000      11.149250000000       1.592750000000
        36    1        9.556500000000       9.556500000000       0.000000000000
        37    1       11.149250000000      11.149250000000       1.592750000000
        38    1       12.742000000000       9.556500000000       0.000000000000
        39    1       14.334750000000      11.149250000000       1.592750000000
        40    1       15.927500000000      12.742000000000       0.000000000000
        41    1        1.592750000000      14.334750000000       1.592750000000
        42    1        3.185500000000      12.742000000000       0.000000000000
        43    1        4.778250000000      14.334750000000       1.592750000000
        44    1        6.371000000000      12.742000000000       0.000000000000
        45    1        7.963750000000      14.334750000000       1.592750000000
        46    1        9.556500000000      12.742000000000       0.000000000000
        47    1       11.149250000000      14.334750000000       1.592750000000
        48    1       12.742000000000      12.742000000000       0.000000000000
        49    1       14.334750000000      14.334750000000       1.592750000000
        50    1        0.000000000000      15.927500000000       3.185500000000
        51    1        1.592750000000       1.592750000000       4.778250000000
        52    1        3.185500000000      15.927500000000       3.185500000000
        53    1        4.778250000000       1.592750000000       4.778250000000
        54    1        6.371000000000      15.927500000000       3.185500000000
        55    1        7.963750000000       1.592750000000       4.778250000000
        56    1        9.556500000000      15.927500000000       3.185500000000
        57    1       11.149250000000       1.592750000000       4.778250000000
        58    1       12.742000000000      15.927500000000       3.185500000000
        59    1       14.334750000000       1.592750000000       4.778250000000
        60    1        0.000000000000       3.185500000000       3.185500000000
        61    1        1.592750000000       4.778250000000       4.778250000000
        62    1        3.185500000000       3.185500000000       3.185500000000
        63    1        4.778250000000       4.778250000000       4.778250000000
        64    1        6.371000000000       3.185500000000       3.185500000000
        65    1        7.963750000000       4.778250000000       4.778250000000
        66    1        9.556500000000       3.185500000000       3.185500000000
        67    1       11.149250000000       4.778250000000       4.778250000000
        68    1       12.742000000000       3.185500000000       3.185500000000
        69    1       14.334750000000       4.778250000000       4.778250000000
        70    1        0.000000000000       6.371000000000       3.185500000000
        71    1        1.592750000000       7.963750000000       4.778250000000
        72    1        3.185500000000       6.371000000000       3.185500000000
        73    1        4.778250000000       7.963750000000       4.778250000000
        74    1        6.371000000000       6.371000000000       3.185500000000
        75    1        7.963750000000       7.963750000000       4.778250000000
        76    1        9.556500000000       6.371000000000       3.185500000000
        77    1       11.149250000000       7.963750000000       4.778250000000
        78    1       12.742000000000       6.371000000000       3.185500000000
        79    1       14.334750000000       7.963750000000       4.778250000000
        80    1        0.000000000000       9.556500000000       3.185500000000
        81    1        1.592750000000      11.149250000000       4.778250000000
        82    1        3.185500000000       9.556500000000       3.185500000000
        83    1        4.778250000000      11.149250000000       4.778250000000
        84    1        6.371000000000       9.556500000000       3.185500000000
        85    1        7.963750000000      11.149250000000       4.778250000000
        86    1        9.556500000000       9.556500000000       3.185500000000
        87    1       11.149250000000      11.149250000000       4.778250000000
        88    1       12.742000000000       9.556500000000       3.185500000000
        89    1       14.334750000000      11.149250000000       4.778250000000
        90    1       15.927500000000      12.742000000000       3.185500000000
        91    1        1.592750000000      14.334750000000       4.778250000000
        92    1        3.185500000000      12.742000000000       3.185500000000
        93    1        4.778250000000      14.334750000000       4.778250000000
        94    1        6.371000000000      12.742000000000       3.185500000000
        95    1        7.963750000000      14.334750000000       4.778250000000
        96    1        9.556500000000      12.742000000000       3.185500000000
        97    1       11.149250000000      14.334750000000       4.778250000000
        98    1       12.742000000000      12.742000000000       3.185500000000
        99    1       14.334750000000      14.334750000000       4.778250000000
       100    1        0.000000000000      15.927500000000       6.371000000000
       101    1        1.592750000000       1.592750000000       7.963750000000
       102    1        3.185500000000      15.927500000000       6.371000000000
       103    1        4.778250000000       1.592750000000       7.963750000000
       104    1        6.371000000000      15.927500000000       6.371000000000
       105    1        7.963750000000       1.592750000000       7.963750000000
       106    1        9.556500000000      15.927500000000       6.371000000000
       107    1       11.149250000000       1.592750000000       7.963750000000
       108    1       12.742000000000      15.927500000000       6.371000000000
       109    1       14.334750000000       1.592750000000       7.963750000000
       110    1        0.000000000000       3.185500000000       6.371000000000
       111    1        1.592750000000       4.778250000000       7.963750000000
       112    1        3.185500000000       3.185500000000       6.371000000000
       113    1        4.778250000000       4.778250000000       7.963750000000
       114    1        6.371000000000       3.185500000000       6.371000000000
       115    1        7.963750000000       4.778250000000       7.963750000000
       116    1        9.556500000000       3.185500000000       6.371000000000
       117    1       11.149250000000       4.778250000000       7.963750000000
       118    1       12.742000000000       3.185500000000       6.371000000000
       119    1       14.334750000000       4.778250000000       7.963750000000
       120    1        0.000000000000       6.371000000000       6.371000000000
       121    1        1.592750000000       7.963750000000       7.963750000000
       122    1        3.185500000000       6.371000000000       6.371000000000
       123    1        4.778250000000       7.963750000000       7.963750000000
       124    1        6.371000000000       6.371000000000       6.371000000000
       125    1        7.963750000000       7.963750000000       7.963750000000
       126    1        9.556500000000       6.371000000000       6.371000000000
       127    1       11.149250000000       7.963750000000       7.963750000000
       128    1       12.742000000000       6.371000000000       6.371000000000
       129    1       14.334750000000       7.963750000000       7.963750000000
       130    1        0.000000000000       9.556500000000       6.371000000000
       131    1        1.592750000000      11.149250000000       7.963750000000
       132    1        3.185500000000       9.556500000000       6.371000000000
       133    1        4.778250000000      11.149250000000       7.963750000000
       134    1        6.371000000000       9.556500000000       6.371000000000
       135    1        7.963750000000      11.149250000000       7.963750000000
       136    1        9.556500000000       9.556500000000       6.371000000000
       137    1       11.149250000000      11.149250000000       7.963750000000
       138    1       12.742000000000       9.556500000000       6.371000000000
       139    1       14.334750000000      11.149250000000       7.963750000000
       140    1        0.000000000000      12.742000000000       6.371000000000
       141    1        1.592750000000      14.334750000000       7.963750000000
       142    1        3.185500000000      12.742000000000       6.371000000000
       143    1        4.778250000000      14.334750000000       7.963750000000
       144    1        6.371000000000      12.742000000000       6.371000000000
       145    1        7.963750000000      14.334750000000       7.963750000000
       146    1        9.556500000000      12.742000000000       6.371000000000
       147    1       11.149250000000      14.334750000000       7.963750000000
       148    1       12.742000000000      12.742000000000       6.371000000000
       149    1       14.334750000000      14.334750000000       7.963750000000
       150    1        0.000000000000      15.927500000000       9.556500000000
       151    1        1.592750000000       1.592750000000      11.149250000000
       152    1        3.185500000000      15.927500000000       9.556500000000
       153    1        4.778250000000       1.592750000000      11.149250000000
       154    1        6.371000000000      15.927500000000       9.556500000000
       155    1        7.963750000000       1.592750000000      11.149250000000
       156    1        9.556500000000      15.927500000000       9.556500000000
       157    1       11.149250000000       1.592750000000      11.149250000000
       158    1       12.742000000000      15.927500000000       9.556500000000
       159    1       14.334750000000       1.592750000000      11.149250000000
       160    1        0.000000000000       3.185500000000       9.556500000000
       161    1        1.592750000000       4.778250000000      11.149250000000
       162    1        3.185500000000       3.185500000000       9.556500000000
       163    1        4.778250000000       4.778250000000      11.149250000000
       164    1        6.371000000000       3.185500000000       9.556500000000
       165    1        7.963750000000       4.778250000000      11.149250000000
       166    1        9.556500000000       3.185500000000       9.556500000000
       167    1       11.149250000000       4.778250000000      11.149250000000
       168    1       12.742000000000       3.185500000000       9.556500000000
       169    1       14.334750000000       4.778250000000      11.149250000000
       170    1        0.000000000000       6.371000000000       9.556500000000
       171    1        1.592750000000       7.963750000000      11.149250000000
       172    1        3.185500000000       6.371000000000       9.556500000000
       173    1        4.778250000000       7.963750000000      11.149250000000
       174    1        6.371000000000       6.371000000000       9.556500000000
       175    1        7.963750000000       7.963750000000      11.149250000000
       176    1        9.556500000000       6.371000000000       9.556500000000
       177    1       11.149250000000       7.963750000000      11.149250000000
       178    1       12.742000000000       6.371000000000       9.556500000000
       179    1       14.334750000000       7.963750000000      11.149250000000
       180    1       15.927500000000       9.556500000000       9.556500000000
       181    1        1.592750000000      11.149250000000      11.149250000000
       182    1        3.185500000000       9.556500000000       9.556500000000
       183    1        4.778250000000      11.149250000000      11.149250000000
       184    1        6.371000000000       9.556500000000       9.556500000000
       185    1        7.963750000000      11.149250000000      11.149250000000
       186    1        9.556500000000       9.556500000000       9.556500000000
       187    1       11.149250000000      11.149250000000      11.149250000000
       188    1       12.742000000000       9.556500000000       9.556500000000
       189    1       14.334750000000      11.149250000000      11.149250000000
       190    1       15.927500000000      12.742000000000       9.556500000000
       191    1        1.592750000000      14.334750000000      11.149250000000
       192    1        3.185500000000      12.742000000000       9.556500000000
       193    1        4.778250000000      14.334750000000      11.149250000000
       194    1        6.371000000000      12.742000000000       9.556500000000
       195    1        7.963750000000      14.334750000000      11.149250000000
       196    1        9.556500000000      12.742000000000       9.556500000000
       197    1       11.149250000000      14.334750000000      11.149250000000
       198    1       12.742000000000      12.742000000000       9.556500000000
       199    1       14.334750000000      14.334750000000      11.149250000000
       200    1        0.000000000000      15.927500000000      12.742000000000
       201    1        1.592750000000       1.592750000000      14.334750000000
       202    1        3.185500000000      15.927500000000      12.742000000000
       203    1        4.778250000000       1.592750000000      14.334750000000
       204    1        6.371000000000      15.927500000000      12.742000000000
       205    1        7.963750000000       1.592750000000      14.334750000000
       206    1        9.556500000000      15.927500000000      12.742000000000
       207    1       11.149250000000       1.592750000000      14.334750000000
       208    1       12.742000000000      15.927500000000      12.742000000000
       209    1       14.334750000000       1.592750000000      14.334750000000
       210    1       15.927500000000       3.185500000000      12.742000000000
       211    1        1.592750000000       4.778250000000      14.334750000000
       212    1        3.185500000000       3.185500000000      12.742000000000
       213    1        4.778250000000       4.778250000000      14.334750000000
       214    1        6.371000000000       3.185500000000      12.742000000000
       215    1        7.963750000000       4.778250000000      14.334750000000
       216    1        9.556500000000       3.185500000000      12.742000000000
       217    1       11.149250000000       4.778250000000      14.334750000000
       218    1       12.742000000000       3.185500000000      12.742000000000
       219    1       14.334750000000       4.778250000000      14.334750000000
       220    1        0.000000000000       6.371000000000      12.742000000000
       221    1        1.592750000000       7.963750000000      14.334750000000
       222    1        3.185500000000       6.371000000000      12.742000000000
       223    1        4.778250000000       7.963750000000      14.334750000000
       224    1        6.371000000000       6.371000000000      12.742000000000
       225    1        7.963750000000       7.963750000000      14.334750000000
       226    1        9.556500000000       6.371000000000      12.742000000000
       227    1       11.149250000000       7.963750000000      14.334750000000
       228    1       12.742000000000       6.371000000000      12.742000000000
       229    1       14.334750000000       7.963750000000      14.334750000000
       230    1        0.000000000000       9.556500000000      12.742000000000
       231    1        1.592750000000      11.149250000000      14.334750000000
       232    1        3.185500000000       9.556500000000      12.742000000000
       233    1        4.778250000000      11.149250000000      14.334750000000
       234    1        6.371000000000       9.556500000000      12.742000000000
       235    1        7.963750000000      11.149250000000      14.334750000000
       236    1        9.556500000000       9.556500000000      12.742000000000
       237    1       11.149250000000      11.149250000000      14.334750000000
       238    1       12.742000000000       9.556500000000      12.742000000000
       239    1       14.334750000000      11.149250000000      14.334750000000
       240    1        0.000000000000      12.742000000000      12.742000000000
       241    1        1.592750000000      14.334750000000      14.334750000000
       242    1        3.185500000000      12.742000000000      12.742000000000
       243    1        4.778250000000      14.334750000000      14.334750000000
       244    1        6.371000000000      12.742000000000      12.742000000000
       245    1        7.963750000000      14.334750000000      14.334750000000
       246    1        9.556500000000      12.742000000000      12.742000000000
       247    1       11.149250000000      14.334750000000      14.334750000000
       248    1       12.742000000000      12.742000000000      12.742000000000
       249    1       14.334750000000      14.334750000000      14.334750000000
