# Created by DefectStudio(c) 2024
1.000000
     15.92750000        0.00000000        0.00000000
      0.00000000       15.92750000        0.00000000
      0.00000000        0.00000000       15.92750000
 W
   249
Cartesian
      1.59275000        1.59275000        1.59275000
      3.18550000        0.00000000        0.00000000
      4.77825000        1.59275000        1.59275000
      6.37100000        0.00000000        0.00000000
      7.96375000        1.59275000        1.59275000
      9.55650000        0.00000000        0.00000000
     11.14925000        1.59275000        1.59275000
     12.74200000        0.00000000        0.00000000
     14.33475000        1.59275000        1.59275000
     15.92750000        3.18550000        0.00000000
      1.59275000        4.77825000        1.59275000
      3.18550000        3.18550000        0.00000000
      4.77825000        4.77825000        1.59275000
      6.37100000        3.18550000        0.00000000
      7.96375000        4.77825000        1.59275000
      9.55650000        3.18550000        0.00000000
     11.14925000        4.77825000        1.59275000
     12.74200000        3.18550000        0.00000000
     14.33475000        4.77825000        1.59275000
     15.92750000        6.37100000        0.00000000
      1.59275000        7.96375000        1.59275000
      3.18550000        6.37100000        0.00000000
      4.77825000        7.96375000        1.59275000
      6.37100000        6.37100000        0.00000000
      7.96375000        7.96375000        1.59275000
      9.55650000        6.37100000        0.00000000
     11.14925000        7.96375000        1.59275000
     12.74200000        6.37100000        0.00000000
     14.33475000        7.96375000        1.59275000
     15.92750000        9.55650000        0.00000000
      1.59275000       11.14925000        1.59275000
      3.18550000        9.55650000        0.00000000
      4.77825000       11.14925000        1.59275000
      6.37100000        9.55650000        0.00000000
      7.96375000       11.14925000        1.59275000
      9.55650000        9.55650000        0.00000000
     11.14925000       11.14925000        1.59275000
     12.74200000        9.55650000        0.00000000
     14.33475000       11.14925000        1.59275000
     15.92750000       12.74200000        0.00000000
      1.59275000       14.33475000        1.59275000
      3.18550000       12.74200000        0.00000000
      4.77825000       14.33475000        1.59275000
      6.37100000       12.74200000        0.00000000
      7.96375000       14.33475000        1.59275000
      9.55650000       12.74200000        0.00000000
     11.14925000       14.33475000        1.59275000
     12.74200000       12.74200000        0.00000000
     14.33475000       14.33475000        1.59275000
      0.00000000       15.92750000        3.18550000
      1.59275000        1.59275000        4.77825000
      3.18550000       15.92750000        3.18550000
      4.77825000        1.59275000        4.77825000
      6.37100000       15.92750000        3.18550000
      7.96375000        1.59275000        4.77825000
      9.55650000       15.92750000        3.18550000
     11.14925000        1.59275000        4.77825000
     12.74200000       15.92750000        3.18550000
     14.33475000        1.59275000        4.77825000
      0.00000000        3.18550000        3.18550000
      1.59275000        4.77825000        4.77825000
      3.18550000        3.18550000        3.18550000
      4.77825000        4.77825000        4.77825000
      6.37100000        3.18550000        3.18550000
      7.96375000        4.77825000        4.77825000
      9.55650000        3.18550000        3.18550000
     11.14925000        4.77825000        4.77825000
     12.74200000        3.18550000        3.18550000
     14.33475000        4.77825000        4.77825000
      0.00000000        6.37100000        3.18550000
      1.59275000        7.96375000        4.77825000
      3.18550000        6.37100000        3.18550000
      4.77825000        7.96375000        4.77825000
      6.37100000        6.37100000        3.18550000
      7.96375000        7.96375000        4.77825000
      9.55650000        6.37100000        3.18550000
     11.14925000        7.96375000        4.77825000
     12.74200000        6.37100000        3.18550000
     14.33475000        7.96375000        4.77825000
      0.00000000        9.55650000        3.18550000
      1.59275000       11.14925000        4.77825000
      3.18550000        9.55650000        3.18550000
      4.77825000       11.14925000        4.77825000
      6.37100000        9.55650000        3.18550000
      7.96375000       11.14925000        4.77825000
      9.55650000        9.55650000        3.18550000
     11.14925000       11.14925000        4.77825000
     12.74200000        9.55650000        3.18550000
     14.33475000       11.14925000        4.77825000
     15.92750000       12.74200000        3.18550000
      1.59275000       14.33475000        4.77825000
      3.18550000       12.74200000        3.18550000
      4.77825000       14.33475000        4.77825000
      6.37100000       12.74200000        3.18550000
      7.96375000       14.33475000        4.77825000
      9.55650000       12.74200000        3.18550000
     11.14925000       14.33475000        4.77825000
     12.74200000       12.74200000        3.18550000
     14.33475000       14.33475000        4.77825000
      0.00000000       15.92750000        6.37100000
      1.59275000        1.59275000        7.96375000
      3.18550000       15.92750000        6.37100000
      4.77825000        1.59275000        7.96375000
      6.37100000       15.92750000        6.37100000
      7.96375000        1.59275000        7.96375000
      9.55650000       15.92750000        6.37100000
     11.14925000        1.59275000        7.96375000
     12.74200000       15.92750000        6.37100000
     14.33475000        1.59275000        7.96375000
      0.00000000        3.18550000        6.37100000
      1.59275000        4.77825000        7.96375000
      3.18550000        3.18550000        6.37100000
      4.77825000        4.77825000        7.96375000
      6.37100000        3.18550000        6.37100000
      7.96375000        4.77825000        7.96375000
      9.55650000        3.18550000        6.37100000
     11.14925000        4.77825000        7.96375000
     12.74200000        3.18550000        6.37100000
     14.33475000        4.77825000        7.96375000
      0.00000000        6.37100000        6.37100000
      1.59275000        7.96375000        7.96375000
      3.18550000        6.37100000        6.37100000
      4.77825000        7.96375000        7.96375000
      6.37100000        6.37100000        6.37100000
      7.96375000        7.96375000        7.96375000
      9.55650000        6.37100000        6.37100000
     11.14925000        7.96375000        7.96375000
     12.74200000        6.37100000        6.37100000
     14.33475000        7.96375000        7.96375000
      0.00000000        9.55650000        6.37100000
      1.59275000       11.14925000        7.96375000
      3.18550000        9.55650000        6.37100000
      4.77825000       11.14925000        7.96375000
      6.37100000        9.55650000        6.37100000
      7.96375000       11.14925000        7.96375000
      9.55650000        9.55650000        6.37100000
     11.14925000       11.14925000        7.96375000
     12.74200000        9.55650000        6.37100000
     14.33475000       11.14925000        7.96375000
      0.00000000       12.74200000        6.37100000
      1.59275000       14.33475000        7.96375000
      3.18550000       12.74200000        6.37100000
      4.77825000       14.33475000        7.96375000
      6.37100000       12.74200000        6.37100000
      7.96375000       14.33475000        7.96375000
      9.55650000       12.74200000        6.37100000
     11.14925000       14.33475000        7.96375000
     12.74200000       12.74200000        6.37100000
     14.33475000       14.33475000        7.96375000
      0.00000000       15.92750000        9.55650000
      1.59275000        1.59275000       11.14925000
      3.18550000       15.92750000        9.55650000
      4.77825000        1.59275000       11.14925000
      6.37100000       15.92750000        9.55650000
      7.96375000        1.59275000       11.14925000
      9.55650000       15.92750000        9.55650000
     11.14925000        1.59275000       11.14925000
     12.74200000       15.92750000        9.55650000
     14.33475000        1.59275000       11.14925000
      0.00000000        3.18550000        9.55650000
      1.59275000        4.77825000       11.14925000
      3.18550000        3.18550000        9.55650000
      4.77825000        4.77825000       11.14925000
      6.37100000        3.18550000        9.55650000
      7.96375000        4.77825000       11.14925000
      9.55650000        3.18550000        9.55650000
     11.14925000        4.77825000       11.14925000
     12.74200000        3.18550000        9.55650000
     14.33475000        4.77825000       11.14925000
      0.00000000        6.37100000        9.55650000
      1.59275000        7.96375000       11.14925000
      3.18550000        6.37100000        9.55650000
      4.77825000        7.96375000       11.14925000
      6.37100000        6.37100000        9.55650000
      7.96375000        7.96375000       11.14925000
      9.55650000        6.37100000        9.55650000
     11.14925000        7.96375000       11.14925000
     12.74200000        6.37100000        9.55650000
     14.33475000        7.96375000       11.14925000
     15.92750000        9.55650000        9.55650000
      1.59275000       11.14925000       11.14925000
      3.18550000        9.55650000        9.55650000
      4.77825000       11.14925000       11.14925000
      6.37100000        9.55650000        9.55650000
      7.96375000       11.14925000       11.14925000
      9.55650000        9.55650000        9.55650000
     11.14925000       11.14925000       11.14925000
     12.74200000        9.55650000        9.55650000
     14.33475000       11.14925000       11.14925000
     15.92750000       12.74200000        9.55650000
      1.59275000       14.33475000       11.14925000
      3.18550000       12.74200000        9.55650000
      4.77825000       14.33475000       11.14925000
      6.37100000       12.74200000        9.55650000
      7.96375000       14.33475000       11.14925000
      9.55650000       12.74200000        9.55650000
     11.14925000       14.33475000       11.14925000
     12.74200000       12.74200000        9.55650000
     14.33475000       14.33475000       11.14925000
      0.00000000       15.92750000       12.74200000
      1.59275000        1.59275000       14.33475000
      3.18550000       15.92750000       12.74200000
      4.77825000        1.59275000       14.33475000
      6.37100000       15.92750000       12.74200000
      7.96375000        1.59275000       14.33475000
      9.55650000       15.92750000       12.74200000
     11.14925000        1.59275000       14.33475000
     12.74200000       15.92750000       12.74200000
     14.33475000        1.59275000       14.33475000
     15.92750000        3.18550000       12.74200000
      1.59275000        4.77825000       14.33475000
      3.18550000        3.18550000       12.74200000
      4.77825000        4.77825000       14.33475000
      6.37100000        3.18550000       12.74200000
      7.96375000        4.77825000       14.33475000
      9.55650000        3.18550000       12.74200000
     11.14925000        4.77825000       14.33475000
     12.74200000        3.18550000       12.74200000
     14.33475000        4.77825000       14.33475000
      0.00000000        6.37100000       12.74200000
      1.59275000        7.96375000       14.33475000
      3.18550000        6.37100000       12.74200000
      4.77825000        7.96375000       14.33475000
      6.37100000        6.37100000       12.74200000
      7.96375000        7.96375000       14.33475000
      9.55650000        6.37100000       12.74200000
     11.14925000        7.96375000       14.33475000
     12.74200000        6.37100000       12.74200000
     14.33475000        7.96375000       14.33475000
      0.00000000        9.55650000       12.74200000
      1.59275000       11.14925000       14.33475000
      3.18550000        9.55650000       12.74200000
      4.77825000       11.14925000       14.33475000
      6.37100000        9.55650000       12.74200000
      7.96375000       11.14925000       14.33475000
      9.55650000        9.55650000       12.74200000
     11.14925000       11.14925000       14.33475000
     12.74200000        9.55650000       12.74200000
     14.33475000       11.14925000       14.33475000
      0.00000000       12.74200000       12.74200000
      1.59275000       14.33475000       14.33475000
      3.18550000       12.74200000       12.74200000
      4.77825000       14.33475000       14.33475000
      6.37100000       12.74200000       12.74200000
      7.96375000       14.33475000       14.33475000
      9.55650000       12.74200000       12.74200000
     11.14925000       14.33475000       14.33475000
     12.74200000       12.74200000       12.74200000
     14.33475000       14.33475000       14.33475000
