# Generated from YAML file
1.000000
     12.66000000        0.00000000        0.00000000
      0.00000000       12.66000000        0.00000000
      0.00000000        0.00000000       12.66000000
 W  Cr
    96      32
Direct
      0.00000000        0.00000000        0.00000000
      0.12500000        0.12500000        0.12500000
      0.00000000        0.00000000        0.25000000
      0.12500000        0.12500000        0.37500000
      0.12500000        0.12500000        0.62500000
      0.00000000        0.00000000        0.75000000
      0.12500000        0.12500000        0.87500000
      0.00000000        0.25000000        0.00000000
      0.12500000        0.37500000        0.12500000
      0.00000000        0.25000000        0.50000000
      0.12500000        0.37500000        0.62500000
      0.00000000        0.50000000        0.00000000
      0.12500000        0.62500000        0.12500000
      0.00000000        0.50000000        0.25000000
      0.00000000        0.50000000        0.50000000
      0.12500000        0.62500000        0.62500000
      0.12500000        0.62500000        0.87500000
      0.00000000        0.75000000        0.00000000
      0.12500000        0.87500000        0.12500000
      0.00000000        0.75000000        0.25000000
      0.12500000        0.87500000        0.37500000
      0.00000000        0.75000000        0.50000000
      0.12500000        0.87500000        0.62500000
      0.00000000        0.75000000        0.75000000
      0.12500000        0.87500000        0.87500000
      0.25000000        0.00000000        0.00000000
      0.37500000        0.12500000        0.12500000
      0.25000000        0.00000000        0.25000000
      0.37500000        0.12500000        0.37500000
      0.25000000        0.00000000        0.50000000
      0.37500000        0.12500000        0.62500000
      0.25000000        0.00000000        0.75000000
      0.37500000        0.12500000        0.87500000
      0.25000000        0.25000000        0.00000000
      0.37500000        0.37500000        0.12500000
      0.37500000        0.37500000        0.37500000
      0.37500000        0.37500000        0.62500000
      0.37500000        0.37500000        0.87500000
      0.25000000        0.50000000        0.00000000
      0.37500000        0.62500000        0.12500000
      0.25000000        0.50000000        0.25000000
      0.25000000        0.50000000        0.50000000
      0.37500000        0.62500000        0.62500000
      0.25000000        0.50000000        0.75000000
      0.25000000        0.75000000        0.00000000
      0.37500000        0.87500000        0.37500000
      0.37500000        0.87500000        0.62500000
      0.25000000        0.75000000        0.75000000
      0.37500000        0.87500000        0.87500000
      0.62500000        0.12500000        0.12500000
      0.50000000        0.00000000        0.25000000
      0.62500000        0.12500000        0.37500000
      0.50000000        0.00000000        0.50000000
      0.62500000        0.12500000        0.62500000
      0.50000000        0.00000000        0.75000000
      0.62500000        0.12500000        0.87500000
      0.50000000        0.25000000        0.00000000
      0.50000000        0.25000000        0.25000000
      0.50000000        0.25000000        0.50000000
      0.62500000        0.37500000        0.62500000
      0.50000000        0.25000000        0.75000000
      0.62500000        0.37500000        0.87500000
      0.50000000        0.50000000        0.00000000
      0.50000000        0.50000000        0.25000000
      0.62500000        0.62500000        0.37500000
      0.50000000        0.50000000        0.50000000
      0.50000000        0.75000000        0.00000000
      0.62500000        0.87500000        0.12500000
      0.62500000        0.87500000        0.37500000
      0.50000000        0.75000000        0.50000000
      0.62500000        0.87500000        0.62500000
      0.50000000        0.75000000        0.75000000
      0.62500000        0.87500000        0.87500000
      0.75000000        0.00000000        0.00000000
      0.87500000        0.12500000        0.37500000
      0.75000000        0.00000000        0.50000000
      0.75000000        0.00000000        0.75000000
      0.87500000        0.12500000        0.87500000
      0.87500000        0.37500000        0.12500000
      0.75000000        0.25000000        0.50000000
      0.87500000        0.37500000        0.62500000
      0.75000000        0.25000000        0.75000000
      0.87500000        0.37500000        0.87500000
      0.75000000        0.50000000        0.00000000
      0.87500000        0.62500000        0.12500000
      0.75000000        0.50000000        0.25000000
      0.87500000        0.62500000        0.37500000
      0.75000000        0.50000000        0.50000000
      0.75000000        0.50000000        0.75000000
      0.75000000        0.75000000        0.00000000
      0.87500000        0.87500000        0.12500000
      0.87500000        0.87500000        0.37500000
      0.75000000        0.75000000        0.50000000
      0.87500000        0.87500000        0.62500000
      0.75000000        0.75000000        0.75000000
      0.87500000        0.87500000        0.87500000
      0.00000000        0.00000000        0.50000000
      0.00000000        0.25000000        0.25000000
      0.12500000        0.37500000        0.37500000
      0.00000000        0.25000000        0.75000000
      0.12500000        0.37500000        0.87500000
      0.12500000        0.62500000        0.37500000
      0.00000000        0.50000000        0.75000000
      0.25000000        0.25000000        0.25000000
      0.25000000        0.25000000        0.50000000
      0.25000000        0.25000000        0.75000000
      0.37500000        0.62500000        0.37500000
      0.37500000        0.62500000        0.87500000
      0.37500000        0.87500000        0.12500000
      0.25000000        0.75000000        0.25000000
      0.25000000        0.75000000        0.50000000
      0.50000000        0.00000000        0.00000000
      0.62500000        0.37500000        0.12500000
      0.62500000        0.37500000        0.37500000
      0.62500000        0.62500000        0.12500000
      0.62500000        0.62500000        0.62500000
      0.50000000        0.50000000        0.75000000
      0.62500000        0.62500000        0.87500000
      0.50000000        0.75000000        0.25000000
      0.87500000        0.12500000        0.12500000
      0.75000000        0.00000000        0.25000000
      0.87500000        0.12500000        0.62500000
      0.75000000        0.25000000        0.00000000
      0.75000000        0.25000000        0.25000000
      0.87500000        0.37500000        0.37500000
      0.87500000        0.62500000        0.62500000
      0.87500000        0.62500000        0.87500000
      0.75000000        0.75000000        0.25000000
