Created by DefectStudio(c) 2024
1.0
47.475 0 0
	0 47.475 0
	0 0 47.475
 H W
 67 6750
Direct
0.6625 0.63125 0.13333333
0.8625 0.43125 0.46666667
0.6625 0.76458333 0.66666667
0.42916667 0.53125 0.83333333
0.1625 0.59791667 0.5
0.0625 0.96458333 0
0.2625 0.43125 0.66666667
0.29583333 0.73125 0.76666667
0.9625 0.53125 0.3
0.09583333 0.73125 0.96666667
0.72916667 0.76458333 0.46666667
0.49583333 0.33125 0.63333333
0.1625 0.06458333 0.5
0.0625 0.69791667 0.46666667
0.49583333 0.46458333 0.1
0.82916667 0.46458333 0.83333333
0.49583333 0.53125 0.76666667
0.92916667 0.43125 0.33333333
0.1625 0.86458333 0.3
0.29583333 0.99791667 0.63333333
0.92916667 0.83125 0.4
0.09583333 0.46458333 0.16666667
0.32916667 0.23125 0.8
0.09583333 0.19791667 0.03333333
0.69583333 0.86458333 0.7
0.62916667 0.93125 0.1
0.19583333 0.09791667 0.4
0.0625 0.29791667 0.86666667
0.3625 0.39791667 0.3
0.1625 0.66458333 0.56666667
0.29583333 0.53125 0.83333333
0.12916666999999998 0.69791667 0.26666667
0.99583333 0.63125 0
0.69583333 0.99791667 0.96666667
0.79583333 0.03125 0.13333333
0.39583333 0.69791667 0.13333333
0.42916667 0.73125 0.7
0.99583333 0.49791667 0.53333333
0.09583333 0.79791667 0.16666667
0.59583333 0.56458333 0.4
0.39583333 0.63125 0.73333333
0.39583333 0.16458333 0.13333333
0.22916667 0.59791667 0.43333333
0.92916667 0.89791667 0.86666667
0.2625 0.89791667 0.53333333
0.9625 0.39791667 0.83333333
0.62916667 0.13125 0.23333333
0.3625 0.19791667 0.9
0.5625 0.39791667 0.56666667
0.42916667 0.86458333 0.5
0.5625 0.59791667 0.9
0.2625 0.16458333 0.6
0.3625 0.93125 0.3
0.72916667 0.69791667 0.46666667
0.12916666999999998 0.76458333 0.73333333
0.09583333 0.59791667 0.56666667
0.59583333 0.23125 0.33333333
0.09583333 0.13125 0.3
0.69583333 0.39791667 0.76666667
0.42916667 0.93125 0.76666667
0.8625 0.09791667 0.93333333
0.4625 0.83125 0.73333333
0.9625 0.79791667 0.36666667
1.02916667 0.06458333 0.56666667
0.6625 0.76458333 0.73333333
0.52916667 0.96458333 0.53333333
0.59583333 0.43125 0.46666667
0 0 0
0.03333333 0.03333333 0.03333333
0.06666667 0 0
0.1 0.03333333 0.03333333
0.13333333 0 0
0.16666667 0.03333333 0.03333333
0.2 0 0
0.23333333 0.03333333 0.03333333
0.26666667 0 0
0.3 0.03333333 0.03333333
0.33333333 0 0
0.36666667 0.03333333 0.03333333
0.4 0 0
0.43333333 0.03333333 0.03333333
0.46666667 0 0
0.5 0.03333333 0.03333333
0.53333333 0 0
0.56666667 0.03333333 0.03333333
0.6 0 0
0.63333333 0.03333333 0.03333333
0.66666667 0 0
0.7 0.03333333 0.03333333
0.73333333 0 0
0.76666667 0.03333333 0.03333333
0.8 0 0
0.83333333 0.03333333 0.03333333
0.86666667 0 0
0.9 0.03333333 0.03333333
0.93333333 0 0
0.96666667 0.03333333 0.03333333
-0 0.06666667 0
0.03333333 0.1 0.03333333
0.06666667 0.06666667 0
0.1 0.1 0.03333333
0.13333333 0.06666667 0
0.16666667 0.1 0.03333333
0.2 0.06666667 0
0.23333333 0.1 0.03333333
0.26666667 0.06666667 0
0.3 0.1 0.03333333
0.33333333 0.06666667 0
0.36666667 0.1 0.03333333
0.4 0.06666667 0
0.43333333 0.1 0.03333333
0.46666667 0.06666667 0
0.5 0.1 0.03333333
0.53333333 0.06666667 0
0.56666667 0.1 0.03333333
0.6 0.06666667 0
0.63333333 0.1 0.03333333
0.66666667 0.06666667 0
0.7 0.1 0.03333333
0.73333333 0.06666667 0
0.76666667 0.1 0.03333333
0.8 0.06666667 0
0.83333333 0.1 0.03333333
0.86666667 0.06666667 0
0.9 0.1 0.03333333
0.93333333 0.06666667 0
0.96666667 0.1 0.03333333
-0 0.13333333 0
0.03333333 0.16666667 0.03333333
0.06666667 0.13333333 0
0.1 0.16666667 0.03333333
0.13333333 0.13333333 0
0.16666667 0.16666667 0.03333333
0.2 0.13333333 0
0.23333333 0.16666667 0.03333333
0.26666667 0.13333333 0
0.3 0.16666667 0.03333333
0.33333333 0.13333333 0
0.36666667 0.16666667 0.03333333
0.4 0.13333333 0
0.43333333 0.16666667 0.03333333
0.46666667 0.13333333 0
0.5 0.16666667 0.03333333
0.53333333 0.13333333 0
0.56666667 0.16666667 0.03333333
0.6 0.13333333 0
0.63333333 0.16666667 0.03333333
0.66666667 0.13333333 0
0.7 0.16666667 0.03333333
0.73333333 0.13333333 0
0.76666667 0.16666667 0.03333333
0.8 0.13333333 0
0.83333333 0.16666667 0.03333333
0.86666667 0.13333333 0
0.9 0.16666667 0.03333333
0.93333333 0.13333333 0
0.96666667 0.16666667 0.03333333
-0 0.2 0
0.03333333 0.23333333 0.03333333
0.06666667 0.2 0
0.1 0.23333333 0.03333333
0.13333333 0.2 0
0.16666667 0.23333333 0.03333333
0.2 0.2 0
0.23333333 0.23333333 0.03333333
0.26666667 0.2 0
0.3 0.23333333 0.03333333
0.33333333 0.2 0
0.36666667 0.23333333 0.03333333
0.4 0.2 0
0.43333333 0.23333333 0.03333333
0.46666667 0.2 0
0.5 0.23333333 0.03333333
0.53333333 0.2 0
0.56666667 0.23333333 0.03333333
0.6 0.2 0
0.63333333 0.23333333 0.03333333
0.66666667 0.2 0
0.7 0.23333333 0.03333333
0.73333333 0.2 0
0.76666667 0.23333333 0.03333333
0.8 0.2 0
0.83333333 0.23333333 0.03333333
0.86666667 0.2 0
0.9 0.23333333 0.03333333
0.93333333 0.2 0
0.96666667 0.23333333 0.03333333
-0 0.26666667 0
0.03333333 0.3 0.03333333
0.06666667 0.26666667 0
0.1 0.3 0.03333333
0.13333333 0.26666667 0
0.16666667 0.3 0.03333333
0.2 0.26666667 0
0.23333333 0.3 0.03333333
0.26666667 0.26666667 0
0.3 0.3 0.03333333
0.33333333 0.26666667 0
0.36666667 0.3 0.03333333
0.4 0.26666667 0
0.43333333 0.3 0.03333333
0.46666667 0.26666667 0
0.5 0.3 0.03333333
0.53333333 0.26666667 0
0.56666667 0.3 0.03333333
0.6 0.26666667 0
0.63333333 0.3 0.03333333
0.66666667 0.26666667 0
0.7 0.3 0.03333333
0.73333333 0.26666667 0
0.76666667 0.3 0.03333333
0.8 0.26666667 0
0.83333333 0.3 0.03333333
0.86666667 0.26666667 0
0.9 0.3 0.03333333
0.93333333 0.26666667 0
0.96666667 0.3 0.03333333
-0 0.33333333 0
0.03333333 0.36666667 0.03333333
0.06666667 0.33333333 0
0.1 0.36666667 0.03333333
0.13333333 0.33333333 0
0.16666667 0.36666667 0.03333333
0.2 0.33333333 0
0.23333333 0.36666667 0.03333333
0.26666667 0.33333333 0
0.3 0.36666667 0.03333333
0.33333333 0.33333333 0
0.36666667 0.36666667 0.03333333
0.4 0.33333333 0
0.43333333 0.36666667 0.03333333
0.46666667 0.33333333 0
0.5 0.36666667 0.03333333
0.53333333 0.33333333 0
0.56666667 0.36666667 0.03333333
0.6 0.33333333 0
0.63333333 0.36666667 0.03333333
0.66666667 0.33333333 0
0.7 0.36666667 0.03333333
0.73333333 0.33333333 0
0.76666667 0.36666667 0.03333333
0.8 0.33333333 0
0.83333333 0.36666667 0.03333333
0.86666667 0.33333333 0
0.9 0.36666667 0.03333333
0.93333333 0.33333333 0
0.96666667 0.36666667 0.03333333
-0 0.4 0
0.03333333 0.43333333 0.03333333
0.06666667 0.4 0
0.1 0.43333333 0.03333333
0.13333333 0.4 0
0.16666667 0.43333333 0.03333333
0.2 0.4 0
0.23333333 0.43333333 0.03333333
0.26666667 0.4 0
0.3 0.43333333 0.03333333
0.33333333 0.4 0
0.36666667 0.43333333 0.03333333
0.4 0.4 0
0.43333333 0.43333333 0.03333333
0.46666667 0.4 0
0.5 0.43333333 0.03333333
0.53333333 0.4 0
0.56666667 0.43333333 0.03333333
0.6 0.4 0
0.63333333 0.43333333 0.03333333
0.66666667 0.4 0
0.7 0.43333333 0.03333333
0.73333333 0.4 0
0.76666667 0.43333333 0.03333333
0.8 0.4 0
0.83333333 0.43333333 0.03333333
0.86666667 0.4 0
0.9 0.43333333 0.03333333
0.93333333 0.4 0
0.96666667 0.43333333 0.03333333
-0 0.46666667 0
0.03333333 0.5 0.03333333
0.06666667 0.46666667 0
0.1 0.5 0.03333333
0.13333333 0.46666667 0
0.16666667 0.5 0.03333333
0.2 0.46666667 0
0.23333333 0.5 0.03333333
0.26666667 0.46666667 0
0.3 0.5 0.03333333
0.33333333 0.46666667 0
0.36666667 0.5 0.03333333
0.4 0.46666667 0
0.43333333 0.5 0.03333333
0.46666667 0.46666667 0
0.5 0.5 0.03333333
0.53333333 0.46666667 0
0.56666667 0.5 0.03333333
0.6 0.46666667 0
0.63333333 0.5 0.03333333
0.66666667 0.46666667 0
0.7 0.5 0.03333333
0.73333333 0.46666667 0
0.76666667 0.5 0.03333333
0.8 0.46666667 0
0.83333333 0.5 0.03333333
0.86666667 0.46666667 0
0.9 0.5 0.03333333
0.93333333 0.46666667 0
0.96666667 0.5 0.03333333
-0 0.53333333 0
0.03333333 0.56666667 0.03333333
0.06666667 0.53333333 0
0.1 0.56666667 0.03333333
0.13333333 0.53333333 0
0.16666667 0.56666667 0.03333333
0.2 0.53333333 0
0.23333333 0.56666667 0.03333333
0.26666667 0.53333333 0
0.3 0.56666667 0.03333333
0.33333333 0.53333333 0
0.36666667 0.56666667 0.03333333
0.4 0.53333333 0
0.43333333 0.56666667 0.03333333
0.46666667 0.53333333 0
0.5 0.56666667 0.03333333
0.53333333 0.53333333 0
0.56666667 0.56666667 0.03333333
0.6 0.53333333 0
0.63333333 0.56666667 0.03333333
0.66666667 0.53333333 0
0.7 0.56666667 0.03333333
0.73333333 0.53333333 0
0.76666667 0.56666667 0.03333333
0.8 0.53333333 0
0.83333333 0.56666667 0.03333333
0.86666667 0.53333333 0
0.9 0.56666667 0.03333333
0.93333333 0.53333333 0
0.96666667 0.56666667 0.03333333
-0 0.6 0
0.03333333 0.63333333 0.03333333
0.06666667 0.6 0
0.1 0.63333333 0.03333333
0.13333333 0.6 0
0.16666667 0.63333333 0.03333333
0.2 0.6 0
0.23333333 0.63333333 0.03333333
0.26666667 0.6 0
0.3 0.63333333 0.03333333
0.33333333 0.6 0
0.36666667 0.63333333 0.03333333
0.4 0.6 0
0.43333333 0.63333333 0.03333333
0.46666667 0.6 0
0.5 0.63333333 0.03333333
0.53333333 0.6 0
0.56666667 0.63333333 0.03333333
0.6 0.6 0
0.63333333 0.63333333 0.03333333
0.66666667 0.6 0
0.7 0.63333333 0.03333333
0.73333333 0.6 0
0.76666667 0.63333333 0.03333333
0.8 0.6 0
0.83333333 0.63333333 0.03333333
0.86666667 0.6 0
0.9 0.63333333 0.03333333
0.93333333 0.6 0
0.96666667 0.63333333 0.03333333
-0 0.66666667 0
0.03333333 0.7 0.03333333
0.06666667 0.66666667 0
0.1 0.7 0.03333333
0.13333333 0.66666667 0
0.16666667 0.7 0.03333333
0.2 0.66666667 0
0.23333333 0.7 0.03333333
0.26666667 0.66666667 0
0.3 0.7 0.03333333
0.33333333 0.66666667 0
0.36666667 0.7 0.03333333
0.4 0.66666667 0
0.43333333 0.7 0.03333333
0.46666667 0.66666667 0
0.5 0.7 0.03333333
0.53333333 0.66666667 0
0.56666667 0.7 0.03333333
0.6 0.66666667 0
0.63333333 0.7 0.03333333
0.66666667 0.66666667 0
0.7 0.7 0.03333333
0.73333333 0.66666667 0
0.76666667 0.7 0.03333333
0.8 0.66666667 0
0.83333333 0.7 0.03333333
0.86666667 0.66666667 0
0.9 0.7 0.03333333
0.93333333 0.66666667 0
0.96666667 0.7 0.03333333
-0 0.73333333 0
0.03333333 0.76666667 0.03333333
0.06666667 0.73333333 0
0.1 0.76666667 0.03333333
0.13333333 0.73333333 0
0.16666667 0.76666667 0.03333333
0.2 0.73333333 0
0.23333333 0.76666667 0.03333333
0.26666667 0.73333333 0
0.3 0.76666667 0.03333333
0.33333333 0.73333333 0
0.36666667 0.76666667 0.03333333
0.4 0.73333333 0
0.43333333 0.76666667 0.03333333
0.46666667 0.73333333 0
0.5 0.76666667 0.03333333
0.53333333 0.73333333 0
0.56666667 0.76666667 0.03333333
0.6 0.73333333 0
0.63333333 0.76666667 0.03333333
0.66666667 0.73333333 0
0.7 0.76666667 0.03333333
0.73333333 0.73333333 0
0.76666667 0.76666667 0.03333333
0.8 0.73333333 0
0.83333333 0.76666667 0.03333333
0.86666667 0.73333333 0
0.9 0.76666667 0.03333333
0.93333333 0.73333333 0
0.96666667 0.76666667 0.03333333
-0 0.8 0
0.03333333 0.83333333 0.03333333
0.06666667 0.8 0
0.1 0.83333333 0.03333333
0.13333333 0.8 0
0.16666667 0.83333333 0.03333333
0.2 0.8 0
0.23333333 0.83333333 0.03333333
0.26666667 0.8 0
0.3 0.83333333 0.03333333
0.33333333 0.8 0
0.36666667 0.83333333 0.03333333
0.4 0.8 0
0.43333333 0.83333333 0.03333333
0.46666667 0.8 0
0.5 0.83333333 0.03333333
0.53333333 0.8 0
0.56666667 0.83333333 0.03333333
0.6 0.8 0
0.63333333 0.83333333 0.03333333
0.66666667 0.8 0
0.7 0.83333333 0.03333333
0.73333333 0.8 0
0.76666667 0.83333333 0.03333333
0.8 0.8 0
0.83333333 0.83333333 0.03333333
0.86666667 0.8 0
0.9 0.83333333 0.03333333
0.93333333 0.8 0
0.96666667 0.83333333 0.03333333
-0 0.86666667 0
0.03333333 0.9 0.03333333
0.06666667 0.86666667 0
0.1 0.9 0.03333333
0.13333333 0.86666667 0
0.16666667 0.9 0.03333333
0.2 0.86666667 0
0.23333333 0.9 0.03333333
0.26666667 0.86666667 0
0.3 0.9 0.03333333
0.33333333 0.86666667 0
0.36666667 0.9 0.03333333
0.4 0.86666667 0
0.43333333 0.9 0.03333333
0.46666667 0.86666667 0
0.5 0.9 0.03333333
0.53333333 0.86666667 0
0.56666667 0.9 0.03333333
0.6 0.86666667 0
0.63333333 0.9 0.03333333
0.66666667 0.86666667 0
0.7 0.9 0.03333333
0.73333333 0.86666667 0
0.76666667 0.9 0.03333333
0.8 0.86666667 0
0.83333333 0.9 0.03333333
0.86666667 0.86666667 0
0.9 0.9 0.03333333
0.93333333 0.86666667 0
0.96666667 0.9 0.03333333
-0 0.93333333 0
0.03333333 0.96666667 0.03333333
0.06666667 0.93333333 0
0.1 0.96666667 0.03333333
0.13333333 0.93333333 0
0.16666667 0.96666667 0.03333333
0.2 0.93333333 0
0.23333333 0.96666667 0.03333333
0.26666667 0.93333333 0
0.3 0.96666667 0.03333333
0.33333333 0.93333333 0
0.36666667 0.96666667 0.03333333
0.4 0.93333333 0
0.43333333 0.96666667 0.03333333
0.46666667 0.93333333 0
0.5 0.96666667 0.03333333
0.53333333 0.93333333 0
0.56666667 0.96666667 0.03333333
0.6 0.93333333 0
0.63333333 0.96666667 0.03333333
0.66666667 0.93333333 0
0.7 0.96666667 0.03333333
0.73333333 0.93333333 0
0.76666667 0.96666667 0.03333333
0.8 0.93333333 0
0.83333333 0.96666667 0.03333333
0.86666667 0.93333333 0
0.9 0.96666667 0.03333333
0.93333333 0.93333333 0
0.96666667 0.96666667 0.03333333
-0 -0 0.06666667
0.03333333 0.03333333 0.1
0.06666667 -0 0.06666667
0.1 0.03333333 0.1
0.13333333 -0 0.06666667
0.16666667 0.03333333 0.1
0.2 -0 0.06666667
0.23333333 0.03333333 0.1
0.26666667 -0 0.06666667
0.3 0.03333333 0.1
0.33333333 -0 0.06666667
0.36666667 0.03333333 0.1
0.4 -0 0.06666667
0.43333333 0.03333333 0.1
0.46666667 -0 0.06666667
0.5 0.03333333 0.1
0.53333333 -0 0.06666667
0.56666667 0.03333333 0.1
0.6 -0 0.06666667
0.63333333 0.03333333 0.1
0.66666667 -0 0.06666667
0.7 0.03333333 0.1
0.73333333 -0 0.06666667
0.76666667 0.03333333 0.1
0.8 -0 0.06666667
0.83333333 0.03333333 0.1
0.86666667 -0 0.06666667
0.9 0.03333333 0.1
0.93333333 -0 0.06666667
0.96666667 0.03333333 0.1
-0 0.06666667 0.06666667
0.03333333 0.1 0.1
0.06666667 0.06666667 0.06666667
0.1 0.1 0.1
0.13333333 0.06666667 0.06666667
0.16666667 0.1 0.1
0.2 0.06666667 0.06666667
0.23333333 0.1 0.1
0.26666667 0.06666667 0.06666667
0.3 0.1 0.1
0.33333333 0.06666667 0.06666667
0.36666667 0.1 0.1
0.4 0.06666667 0.06666667
0.43333333 0.1 0.1
0.46666667 0.06666667 0.06666667
0.5 0.1 0.1
0.53333333 0.06666667 0.06666667
0.56666667 0.1 0.1
0.6 0.06666667 0.06666667
0.63333333 0.1 0.1
0.66666667 0.06666667 0.06666667
0.7 0.1 0.1
0.73333333 0.06666667 0.06666667
0.76666667 0.1 0.1
0.8 0.06666667 0.06666667
0.83333333 0.1 0.1
0.86666667 0.06666667 0.06666667
0.9 0.1 0.1
0.93333333 0.06666667 0.06666667
0.96666667 0.1 0.1
-0 0.13333333 0.06666667
0.03333333 0.16666667 0.1
0.06666667 0.13333333 0.06666667
0.1 0.16666667 0.1
0.13333333 0.13333333 0.06666667
0.16666667 0.16666667 0.1
0.2 0.13333333 0.06666667
0.23333333 0.16666667 0.1
0.26666667 0.13333333 0.06666667
0.3 0.16666667 0.1
0.33333333 0.13333333 0.06666667
0.36666667 0.16666667 0.1
0.4 0.13333333 0.06666667
0.43333333 0.16666667 0.1
0.46666667 0.13333333 0.06666667
0.5 0.16666667 0.1
0.53333333 0.13333333 0.06666667
0.56666667 0.16666667 0.1
0.6 0.13333333 0.06666667
0.63333333 0.16666667 0.1
0.66666667 0.13333333 0.06666667
0.7 0.16666667 0.1
0.73333333 0.13333333 0.06666667
0.76666667 0.16666667 0.1
0.8 0.13333333 0.06666667
0.83333333 0.16666667 0.1
0.86666667 0.13333333 0.06666667
0.9 0.16666667 0.1
0.93333333 0.13333333 0.06666667
0.96666667 0.16666667 0.1
-0 0.2 0.06666667
0.03333333 0.23333333 0.1
0.06666667 0.2 0.06666667
0.1 0.23333333 0.1
0.13333333 0.2 0.06666667
0.16666667 0.23333333 0.1
0.2 0.2 0.06666667
0.23333333 0.23333333 0.1
0.26666667 0.2 0.06666667
0.3 0.23333333 0.1
0.33333333 0.2 0.06666667
0.36666667 0.23333333 0.1
0.4 0.2 0.06666667
0.43333333 0.23333333 0.1
0.46666667 0.2 0.06666667
0.5 0.23333333 0.1
0.53333333 0.2 0.06666667
0.56666667 0.23333333 0.1
0.6 0.2 0.06666667
0.63333333 0.23333333 0.1
0.66666667 0.2 0.06666667
0.7 0.23333333 0.1
0.73333333 0.2 0.06666667
0.76666667 0.23333333 0.1
0.8 0.2 0.06666667
0.83333333 0.23333333 0.1
0.86666667 0.2 0.06666667
0.9 0.23333333 0.1
0.93333333 0.2 0.06666667
0.96666667 0.23333333 0.1
-0 0.26666667 0.06666667
0.03333333 0.3 0.1
0.06666667 0.26666667 0.06666667
0.1 0.3 0.1
0.13333333 0.26666667 0.06666667
0.16666667 0.3 0.1
0.2 0.26666667 0.06666667
0.23333333 0.3 0.1
0.26666667 0.26666667 0.06666667
0.3 0.3 0.1
0.33333333 0.26666667 0.06666667
0.36666667 0.3 0.1
0.4 0.26666667 0.06666667
0.43333333 0.3 0.1
0.46666667 0.26666667 0.06666667
0.5 0.3 0.1
0.53333333 0.26666667 0.06666667
0.56666667 0.3 0.1
0.6 0.26666667 0.06666667
0.63333333 0.3 0.1
0.66666667 0.26666667 0.06666667
0.7 0.3 0.1
0.73333333 0.26666667 0.06666667
0.76666667 0.3 0.1
0.8 0.26666667 0.06666667
0.83333333 0.3 0.1
0.86666667 0.26666667 0.06666667
0.9 0.3 0.1
0.93333333 0.26666667 0.06666667
0.96666667 0.3 0.1
-0 0.33333333 0.06666667
0.03333333 0.36666667 0.1
0.06666667 0.33333333 0.06666667
0.1 0.36666667 0.1
0.13333333 0.33333333 0.06666667
0.16666667 0.36666667 0.1
0.2 0.33333333 0.06666667
0.23333333 0.36666667 0.1
0.26666667 0.33333333 0.06666667
0.3 0.36666667 0.1
0.33333333 0.33333333 0.06666667
0.36666667 0.36666667 0.1
0.4 0.33333333 0.06666667
0.43333333 0.36666667 0.1
0.46666667 0.33333333 0.06666667
0.5 0.36666667 0.1
0.53333333 0.33333333 0.06666667
0.56666667 0.36666667 0.1
0.6 0.33333333 0.06666667
0.63333333 0.36666667 0.1
0.66666667 0.33333333 0.06666667
0.7 0.36666667 0.1
0.73333333 0.33333333 0.06666667
0.76666667 0.36666667 0.1
0.8 0.33333333 0.06666667
0.83333333 0.36666667 0.1
0.86666667 0.33333333 0.06666667
0.9 0.36666667 0.1
0.93333333 0.33333333 0.06666667
0.96666667 0.36666667 0.1
-0 0.4 0.06666667
0.03333333 0.43333333 0.1
0.06666667 0.4 0.06666667
0.1 0.43333333 0.1
0.13333333 0.4 0.06666667
0.16666667 0.43333333 0.1
0.2 0.4 0.06666667
0.23333333 0.43333333 0.1
0.26666667 0.4 0.06666667
0.3 0.43333333 0.1
0.33333333 0.4 0.06666667
0.36666667 0.43333333 0.1
0.4 0.4 0.06666667
0.43333333 0.43333333 0.1
0.46666667 0.4 0.06666667
0.5 0.43333333 0.1
0.53333333 0.4 0.06666667
0.56666667 0.43333333 0.1
0.6 0.4 0.06666667
0.63333333 0.43333333 0.1
0.66666667 0.4 0.06666667
0.7 0.43333333 0.1
0.73333333 0.4 0.06666667
0.76666667 0.43333333 0.1
0.8 0.4 0.06666667
0.83333333 0.43333333 0.1
0.86666667 0.4 0.06666667
0.9 0.43333333 0.1
0.93333333 0.4 0.06666667
0.96666667 0.43333333 0.1
-0 0.46666667 0.06666667
0.03333333 0.5 0.1
0.06666667 0.46666667 0.06666667
0.1 0.5 0.1
0.13333333 0.46666667 0.06666667
0.16666667 0.5 0.1
0.2 0.46666667 0.06666667
0.23333333 0.5 0.1
0.26666667 0.46666667 0.06666667
0.3 0.5 0.1
0.33333333 0.46666667 0.06666667
0.36666667 0.5 0.1
0.4 0.46666667 0.06666667
0.43333333 0.5 0.1
0.46666667 0.46666667 0.06666667
0.5 0.5 0.1
0.53333333 0.46666667 0.06666667
0.56666667 0.5 0.1
0.6 0.46666667 0.06666667
0.63333333 0.5 0.1
0.66666667 0.46666667 0.06666667
0.7 0.5 0.1
0.73333333 0.46666667 0.06666667
0.76666667 0.5 0.1
0.8 0.46666667 0.06666667
0.83333333 0.5 0.1
0.86666667 0.46666667 0.06666667
0.9 0.5 0.1
0.93333333 0.46666667 0.06666667
0.96666667 0.5 0.1
-0 0.53333333 0.06666667
0.03333333 0.56666667 0.1
0.06666667 0.53333333 0.06666667
0.1 0.56666667 0.1
0.13333333 0.53333333 0.06666667
0.16666667 0.56666667 0.1
0.2 0.53333333 0.06666667
0.23333333 0.56666667 0.1
0.26666667 0.53333333 0.06666667
0.3 0.56666667 0.1
0.33333333 0.53333333 0.06666667
0.36666667 0.56666667 0.1
0.4 0.53333333 0.06666667
0.43333333 0.56666667 0.1
0.46666667 0.53333333 0.06666667
0.5 0.56666667 0.1
0.53333333 0.53333333 0.06666667
0.56666667 0.56666667 0.1
0.6 0.53333333 0.06666667
0.63333333 0.56666667 0.1
0.66666667 0.53333333 0.06666667
0.7 0.56666667 0.1
0.73333333 0.53333333 0.06666667
0.76666667 0.56666667 0.1
0.8 0.53333333 0.06666667
0.83333333 0.56666667 0.1
0.86666667 0.53333333 0.06666667
0.9 0.56666667 0.1
0.93333333 0.53333333 0.06666667
0.96666667 0.56666667 0.1
-0 0.6 0.06666667
0.03333333 0.63333333 0.1
0.06666667 0.6 0.06666667
0.1 0.63333333 0.1
0.13333333 0.6 0.06666667
0.16666667 0.63333333 0.1
0.2 0.6 0.06666667
0.23333333 0.63333333 0.1
0.26666667 0.6 0.06666667
0.3 0.63333333 0.1
0.33333333 0.6 0.06666667
0.36666667 0.63333333 0.1
0.4 0.6 0.06666667
0.43333333 0.63333333 0.1
0.46666667 0.6 0.06666667
0.5 0.63333333 0.1
0.53333333 0.6 0.06666667
0.56666667 0.63333333 0.1
0.6 0.6 0.06666667
0.63333333 0.63333333 0.1
0.66666667 0.6 0.06666667
0.7 0.63333333 0.1
0.73333333 0.6 0.06666667
0.76666667 0.63333333 0.1
0.8 0.6 0.06666667
0.83333333 0.63333333 0.1
0.86666667 0.6 0.06666667
0.9 0.63333333 0.1
0.93333333 0.6 0.06666667
0.96666667 0.63333333 0.1
-0 0.66666667 0.06666667
0.03333333 0.7 0.1
0.06666667 0.66666667 0.06666667
0.1 0.7 0.1
0.13333333 0.66666667 0.06666667
0.16666667 0.7 0.1
0.2 0.66666667 0.06666667
0.23333333 0.7 0.1
0.26666667 0.66666667 0.06666667
0.3 0.7 0.1
0.33333333 0.66666667 0.06666667
0.36666667 0.7 0.1
0.4 0.66666667 0.06666667
0.43333333 0.7 0.1
0.46666667 0.66666667 0.06666667
0.5 0.7 0.1
0.53333333 0.66666667 0.06666667
0.56666667 0.7 0.1
0.6 0.66666667 0.06666667
0.63333333 0.7 0.1
0.66666667 0.66666667 0.06666667
0.7 0.7 0.1
0.73333333 0.66666667 0.06666667
0.76666667 0.7 0.1
0.8 0.66666667 0.06666667
0.83333333 0.7 0.1
0.86666667 0.66666667 0.06666667
0.9 0.7 0.1
0.93333333 0.66666667 0.06666667
0.96666667 0.7 0.1
-0 0.73333333 0.06666667
0.03333333 0.76666667 0.1
0.06666667 0.73333333 0.06666667
0.1 0.76666667 0.1
0.13333333 0.73333333 0.06666667
0.16666667 0.76666667 0.1
0.2 0.73333333 0.06666667
0.23333333 0.76666667 0.1
0.26666667 0.73333333 0.06666667
0.3 0.76666667 0.1
0.33333333 0.73333333 0.06666667
0.36666667 0.76666667 0.1
0.4 0.73333333 0.06666667
0.43333333 0.76666667 0.1
0.46666667 0.73333333 0.06666667
0.5 0.76666667 0.1
0.53333333 0.73333333 0.06666667
0.56666667 0.76666667 0.1
0.6 0.73333333 0.06666667
0.63333333 0.76666667 0.1
0.66666667 0.73333333 0.06666667
0.7 0.76666667 0.1
0.73333333 0.73333333 0.06666667
0.76666667 0.76666667 0.1
0.8 0.73333333 0.06666667
0.83333333 0.76666667 0.1
0.86666667 0.73333333 0.06666667
0.9 0.76666667 0.1
0.93333333 0.73333333 0.06666667
0.96666667 0.76666667 0.1
-0 0.8 0.06666667
0.03333333 0.83333333 0.1
0.06666667 0.8 0.06666667
0.1 0.83333333 0.1
0.13333333 0.8 0.06666667
0.16666667 0.83333333 0.1
0.2 0.8 0.06666667
0.23333333 0.83333333 0.1
0.26666667 0.8 0.06666667
0.3 0.83333333 0.1
0.33333333 0.8 0.06666667
0.36666667 0.83333333 0.1
0.4 0.8 0.06666667
0.43333333 0.83333333 0.1
0.46666667 0.8 0.06666667
0.5 0.83333333 0.1
0.53333333 0.8 0.06666667
0.56666667 0.83333333 0.1
0.6 0.8 0.06666667
0.63333333 0.83333333 0.1
0.66666667 0.8 0.06666667
0.7 0.83333333 0.1
0.73333333 0.8 0.06666667
0.76666667 0.83333333 0.1
0.8 0.8 0.06666667
0.83333333 0.83333333 0.1
0.86666667 0.8 0.06666667
0.9 0.83333333 0.1
0.93333333 0.8 0.06666667
0.96666667 0.83333333 0.1
-0 0.86666667 0.06666667
0.03333333 0.9 0.1
0.06666667 0.86666667 0.06666667
0.1 0.9 0.1
0.13333333 0.86666667 0.06666667
0.16666667 0.9 0.1
0.2 0.86666667 0.06666667
0.23333333 0.9 0.1
0.26666667 0.86666667 0.06666667
0.3 0.9 0.1
0.33333333 0.86666667 0.06666667
0.36666667 0.9 0.1
0.4 0.86666667 0.06666667
0.43333333 0.9 0.1
0.46666667 0.86666667 0.06666667
0.5 0.9 0.1
0.53333333 0.86666667 0.06666667
0.56666667 0.9 0.1
0.6 0.86666667 0.06666667
0.63333333 0.9 0.1
0.66666667 0.86666667 0.06666667
0.7 0.9 0.1
0.73333333 0.86666667 0.06666667
0.76666667 0.9 0.1
0.8 0.86666667 0.06666667
0.83333333 0.9 0.1
0.86666667 0.86666667 0.06666667
0.9 0.9 0.1
0.93333333 0.86666667 0.06666667
0.96666667 0.9 0.1
-0 0.93333333 0.06666667
0.03333333 0.96666667 0.1
0.06666667 0.93333333 0.06666667
0.1 0.96666667 0.1
0.13333333 0.93333333 0.06666667
0.16666667 0.96666667 0.1
0.2 0.93333333 0.06666667
0.23333333 0.96666667 0.1
0.26666667 0.93333333 0.06666667
0.3 0.96666667 0.1
0.33333333 0.93333333 0.06666667
0.36666667 0.96666667 0.1
0.4 0.93333333 0.06666667
0.43333333 0.96666667 0.1
0.46666667 0.93333333 0.06666667
0.5 0.96666667 0.1
0.53333333 0.93333333 0.06666667
0.56666667 0.96666667 0.1
0.6 0.93333333 0.06666667
0.63333333 0.96666667 0.1
0.66666667 0.93333333 0.06666667
0.7 0.96666667 0.1
0.73333333 0.93333333 0.06666667
0.76666667 0.96666667 0.1
0.8 0.93333333 0.06666667
0.83333333 0.96666667 0.1
0.86666667 0.93333333 0.06666667
0.9 0.96666667 0.1
0.93333333 0.93333333 0.06666667
0.96666667 0.96666667 0.1
-0 -0 0.13333333
0.03333333 0.03333333 0.16666667
0.06666667 -0 0.13333333
0.1 0.03333333 0.16666667
0.13333333 -0 0.13333333
0.16666667 0.03333333 0.16666667
0.2 -0 0.13333333
0.23333333 0.03333333 0.16666667
0.26666667 -0 0.13333333
0.3 0.03333333 0.16666667
0.33333333 -0 0.13333333
0.36666667 0.03333333 0.16666667
0.4 -0 0.13333333
0.43333333 0.03333333 0.16666667
0.46666667 -0 0.13333333
0.5 0.03333333 0.16666667
0.53333333 -0 0.13333333
0.56666667 0.03333333 0.16666667
0.6 -0 0.13333333
0.63333333 0.03333333 0.16666667
0.66666667 -0 0.13333333
0.7 0.03333333 0.16666667
0.73333333 -0 0.13333333
0.76666667 0.03333333 0.16666667
0.8 -0 0.13333333
0.83333333 0.03333333 0.16666667
0.86666667 -0 0.13333333
0.9 0.03333333 0.16666667
0.93333333 -0 0.13333333
0.96666667 0.03333333 0.16666667
-0 0.06666667 0.13333333
0.03333333 0.1 0.16666667
0.06666667 0.06666667 0.13333333
0.1 0.1 0.16666667
0.13333333 0.06666667 0.13333333
0.16666667 0.1 0.16666667
0.2 0.06666667 0.13333333
0.23333333 0.1 0.16666667
0.26666667 0.06666667 0.13333333
0.3 0.1 0.16666667
0.33333333 0.06666667 0.13333333
0.36666667 0.1 0.16666667
0.4 0.06666667 0.13333333
0.43333333 0.1 0.16666667
0.46666667 0.06666667 0.13333333
0.5 0.1 0.16666667
0.53333333 0.06666667 0.13333333
0.56666667 0.1 0.16666667
0.6 0.06666667 0.13333333
0.63333333 0.1 0.16666667
0.66666667 0.06666667 0.13333333
0.7 0.1 0.16666667
0.73333333 0.06666667 0.13333333
0.76666667 0.1 0.16666667
0.8 0.06666667 0.13333333
0.83333333 0.1 0.16666667
0.86666667 0.06666667 0.13333333
0.9 0.1 0.16666667
0.93333333 0.06666667 0.13333333
0.96666667 0.1 0.16666667
-0 0.13333333 0.13333333
0.03333333 0.16666667 0.16666667
0.06666667 0.13333333 0.13333333
0.1 0.16666667 0.16666667
0.13333333 0.13333333 0.13333333
0.16666667 0.16666667 0.16666667
0.2 0.13333333 0.13333333
0.23333333 0.16666667 0.16666667
0.26666667 0.13333333 0.13333333
0.3 0.16666667 0.16666667
0.33333333 0.13333333 0.13333333
0.36666667 0.16666667 0.16666667
0.4 0.13333333 0.13333333
0.43333333 0.16666667 0.16666667
0.46666667 0.13333333 0.13333333
0.5 0.16666667 0.16666667
0.53333333 0.13333333 0.13333333
0.56666667 0.16666667 0.16666667
0.6 0.13333333 0.13333333
0.63333333 0.16666667 0.16666667
0.66666667 0.13333333 0.13333333
0.7 0.16666667 0.16666667
0.73333333 0.13333333 0.13333333
0.76666667 0.16666667 0.16666667
0.8 0.13333333 0.13333333
0.83333333 0.16666667 0.16666667
0.86666667 0.13333333 0.13333333
0.9 0.16666667 0.16666667
0.93333333 0.13333333 0.13333333
0.96666667 0.16666667 0.16666667
-0 0.2 0.13333333
0.03333333 0.23333333 0.16666667
0.06666667 0.2 0.13333333
0.1 0.23333333 0.16666667
0.13333333 0.2 0.13333333
0.16666667 0.23333333 0.16666667
0.2 0.2 0.13333333
0.23333333 0.23333333 0.16666667
0.26666667 0.2 0.13333333
0.3 0.23333333 0.16666667
0.33333333 0.2 0.13333333
0.36666667 0.23333333 0.16666667
0.4 0.2 0.13333333
0.43333333 0.23333333 0.16666667
0.46666667 0.2 0.13333333
0.5 0.23333333 0.16666667
0.53333333 0.2 0.13333333
0.56666667 0.23333333 0.16666667
0.6 0.2 0.13333333
0.63333333 0.23333333 0.16666667
0.66666667 0.2 0.13333333
0.7 0.23333333 0.16666667
0.73333333 0.2 0.13333333
0.76666667 0.23333333 0.16666667
0.8 0.2 0.13333333
0.83333333 0.23333333 0.16666667
0.86666667 0.2 0.13333333
0.9 0.23333333 0.16666667
0.93333333 0.2 0.13333333
0.96666667 0.23333333 0.16666667
-0 0.26666667 0.13333333
0.03333333 0.3 0.16666667
0.06666667 0.26666667 0.13333333
0.1 0.3 0.16666667
0.13333333 0.26666667 0.13333333
0.16666667 0.3 0.16666667
0.2 0.26666667 0.13333333
0.23333333 0.3 0.16666667
0.26666667 0.26666667 0.13333333
0.3 0.3 0.16666667
0.33333333 0.26666667 0.13333333
0.36666667 0.3 0.16666667
0.4 0.26666667 0.13333333
0.43333333 0.3 0.16666667
0.46666667 0.26666667 0.13333333
0.5 0.3 0.16666667
0.53333333 0.26666667 0.13333333
0.56666667 0.3 0.16666667
0.6 0.26666667 0.13333333
0.63333333 0.3 0.16666667
0.66666667 0.26666667 0.13333333
0.7 0.3 0.16666667
0.73333333 0.26666667 0.13333333
0.76666667 0.3 0.16666667
0.8 0.26666667 0.13333333
0.83333333 0.3 0.16666667
0.86666667 0.26666667 0.13333333
0.9 0.3 0.16666667
0.93333333 0.26666667 0.13333333
0.96666667 0.3 0.16666667
-0 0.33333333 0.13333333
0.03333333 0.36666667 0.16666667
0.06666667 0.33333333 0.13333333
0.1 0.36666667 0.16666667
0.13333333 0.33333333 0.13333333
0.16666667 0.36666667 0.16666667
0.2 0.33333333 0.13333333
0.23333333 0.36666667 0.16666667
0.26666667 0.33333333 0.13333333
0.3 0.36666667 0.16666667
0.33333333 0.33333333 0.13333333
0.36666667 0.36666667 0.16666667
0.4 0.33333333 0.13333333
0.43333333 0.36666667 0.16666667
0.46666667 0.33333333 0.13333333
0.5 0.36666667 0.16666667
0.53333333 0.33333333 0.13333333
0.56666667 0.36666667 0.16666667
0.6 0.33333333 0.13333333
0.63333333 0.36666667 0.16666667
0.66666667 0.33333333 0.13333333
0.7 0.36666667 0.16666667
0.73333333 0.33333333 0.13333333
0.76666667 0.36666667 0.16666667
0.8 0.33333333 0.13333333
0.83333333 0.36666667 0.16666667
0.86666667 0.33333333 0.13333333
0.9 0.36666667 0.16666667
0.93333333 0.33333333 0.13333333
0.96666667 0.36666667 0.16666667
-0 0.4 0.13333333
0.03333333 0.43333333 0.16666667
0.06666667 0.4 0.13333333
0.1 0.43333333 0.16666667
0.13333333 0.4 0.13333333
0.16666667 0.43333333 0.16666667
0.2 0.4 0.13333333
0.23333333 0.43333333 0.16666667
0.26666667 0.4 0.13333333
0.3 0.43333333 0.16666667
0.33333333 0.4 0.13333333
0.36666667 0.43333333 0.16666667
0.4 0.4 0.13333333
0.43333333 0.43333333 0.16666667
0.46666667 0.4 0.13333333
0.5 0.43333333 0.16666667
0.53333333 0.4 0.13333333
0.56666667 0.43333333 0.16666667
0.6 0.4 0.13333333
0.63333333 0.43333333 0.16666667
0.66666667 0.4 0.13333333
0.7 0.43333333 0.16666667
0.73333333 0.4 0.13333333
0.76666667 0.43333333 0.16666667
0.8 0.4 0.13333333
0.83333333 0.43333333 0.16666667
0.86666667 0.4 0.13333333
0.9 0.43333333 0.16666667
0.93333333 0.4 0.13333333
0.96666667 0.43333333 0.16666667
-0 0.46666667 0.13333333
0.03333333 0.5 0.16666667
0.06666667 0.46666667 0.13333333
0.1 0.5 0.16666667
0.13333333 0.46666667 0.13333333
0.16666667 0.5 0.16666667
0.2 0.46666667 0.13333333
0.23333333 0.5 0.16666667
0.26666667 0.46666667 0.13333333
0.3 0.5 0.16666667
0.33333333 0.46666667 0.13333333
0.36666667 0.5 0.16666667
0.4 0.46666667 0.13333333
0.43333333 0.5 0.16666667
0.46666667 0.46666667 0.13333333
0.5 0.5 0.16666667
0.53333333 0.46666667 0.13333333
0.56666667 0.5 0.16666667
0.6 0.46666667 0.13333333
0.63333333 0.5 0.16666667
0.66666667 0.46666667 0.13333333
0.7 0.5 0.16666667
0.73333333 0.46666667 0.13333333
0.76666667 0.5 0.16666667
0.8 0.46666667 0.13333333
0.83333333 0.5 0.16666667
0.86666667 0.46666667 0.13333333
0.9 0.5 0.16666667
0.93333333 0.46666667 0.13333333
0.96666667 0.5 0.16666667
-0 0.53333333 0.13333333
0.03333333 0.56666667 0.16666667
0.06666667 0.53333333 0.13333333
0.1 0.56666667 0.16666667
0.13333333 0.53333333 0.13333333
0.16666667 0.56666667 0.16666667
0.2 0.53333333 0.13333333
0.23333333 0.56666667 0.16666667
0.26666667 0.53333333 0.13333333
0.3 0.56666667 0.16666667
0.33333333 0.53333333 0.13333333
0.36666667 0.56666667 0.16666667
0.4 0.53333333 0.13333333
0.43333333 0.56666667 0.16666667
0.46666667 0.53333333 0.13333333
0.5 0.56666667 0.16666667
0.53333333 0.53333333 0.13333333
0.56666667 0.56666667 0.16666667
0.6 0.53333333 0.13333333
0.63333333 0.56666667 0.16666667
0.66666667 0.53333333 0.13333333
0.7 0.56666667 0.16666667
0.73333333 0.53333333 0.13333333
0.76666667 0.56666667 0.16666667
0.8 0.53333333 0.13333333
0.83333333 0.56666667 0.16666667
0.86666667 0.53333333 0.13333333
0.9 0.56666667 0.16666667
0.93333333 0.53333333 0.13333333
0.96666667 0.56666667 0.16666667
-0 0.6 0.13333333
0.03333333 0.63333333 0.16666667
0.06666667 0.6 0.13333333
0.1 0.63333333 0.16666667
0.13333333 0.6 0.13333333
0.16666667 0.63333333 0.16666667
0.2 0.6 0.13333333
0.23333333 0.63333333 0.16666667
0.26666667 0.6 0.13333333
0.3 0.63333333 0.16666667
0.33333333 0.6 0.13333333
0.36666667 0.63333333 0.16666667
0.4 0.6 0.13333333
0.43333333 0.63333333 0.16666667
0.46666667 0.6 0.13333333
0.5 0.63333333 0.16666667
0.53333333 0.6 0.13333333
0.56666667 0.63333333 0.16666667
0.6 0.6 0.13333333
0.63333333 0.63333333 0.16666667
0.66666667 0.6 0.13333333
0.7 0.63333333 0.16666667
0.73333333 0.6 0.13333333
0.76666667 0.63333333 0.16666667
0.8 0.6 0.13333333
0.83333333 0.63333333 0.16666667
0.86666667 0.6 0.13333333
0.9 0.63333333 0.16666667
0.93333333 0.6 0.13333333
0.96666667 0.63333333 0.16666667
-0 0.66666667 0.13333333
0.03333333 0.7 0.16666667
0.06666667 0.66666667 0.13333333
0.1 0.7 0.16666667
0.13333333 0.66666667 0.13333333
0.16666667 0.7 0.16666667
0.2 0.66666667 0.13333333
0.23333333 0.7 0.16666667
0.26666667 0.66666667 0.13333333
0.3 0.7 0.16666667
0.33333333 0.66666667 0.13333333
0.36666667 0.7 0.16666667
0.4 0.66666667 0.13333333
0.43333333 0.7 0.16666667
0.46666667 0.66666667 0.13333333
0.5 0.7 0.16666667
0.53333333 0.66666667 0.13333333
0.56666667 0.7 0.16666667
0.6 0.66666667 0.13333333
0.63333333 0.7 0.16666667
0.66666667 0.66666667 0.13333333
0.7 0.7 0.16666667
0.73333333 0.66666667 0.13333333
0.76666667 0.7 0.16666667
0.8 0.66666667 0.13333333
0.83333333 0.7 0.16666667
0.86666667 0.66666667 0.13333333
0.9 0.7 0.16666667
0.93333333 0.66666667 0.13333333
0.96666667 0.7 0.16666667
-0 0.73333333 0.13333333
0.03333333 0.76666667 0.16666667
0.06666667 0.73333333 0.13333333
0.1 0.76666667 0.16666667
0.13333333 0.73333333 0.13333333
0.16666667 0.76666667 0.16666667
0.2 0.73333333 0.13333333
0.23333333 0.76666667 0.16666667
0.26666667 0.73333333 0.13333333
0.3 0.76666667 0.16666667
0.33333333 0.73333333 0.13333333
0.36666667 0.76666667 0.16666667
0.4 0.73333333 0.13333333
0.43333333 0.76666667 0.16666667
0.46666667 0.73333333 0.13333333
0.5 0.76666667 0.16666667
0.53333333 0.73333333 0.13333333
0.56666667 0.76666667 0.16666667
0.6 0.73333333 0.13333333
0.63333333 0.76666667 0.16666667
0.66666667 0.73333333 0.13333333
0.7 0.76666667 0.16666667
0.73333333 0.73333333 0.13333333
0.76666667 0.76666667 0.16666667
0.8 0.73333333 0.13333333
0.83333333 0.76666667 0.16666667
0.86666667 0.73333333 0.13333333
0.9 0.76666667 0.16666667
0.93333333 0.73333333 0.13333333
0.96666667 0.76666667 0.16666667
-0 0.8 0.13333333
0.03333333 0.83333333 0.16666667
0.06666667 0.8 0.13333333
0.1 0.83333333 0.16666667
0.13333333 0.8 0.13333333
0.16666667 0.83333333 0.16666667
0.2 0.8 0.13333333
0.23333333 0.83333333 0.16666667
0.26666667 0.8 0.13333333
0.3 0.83333333 0.16666667
0.33333333 0.8 0.13333333
0.36666667 0.83333333 0.16666667
0.4 0.8 0.13333333
0.43333333 0.83333333 0.16666667
0.46666667 0.8 0.13333333
0.5 0.83333333 0.16666667
0.53333333 0.8 0.13333333
0.56666667 0.83333333 0.16666667
0.6 0.8 0.13333333
0.63333333 0.83333333 0.16666667
0.66666667 0.8 0.13333333
0.7 0.83333333 0.16666667
0.73333333 0.8 0.13333333
0.76666667 0.83333333 0.16666667
0.8 0.8 0.13333333
0.83333333 0.83333333 0.16666667
0.86666667 0.8 0.13333333
0.9 0.83333333 0.16666667
0.93333333 0.8 0.13333333
0.96666667 0.83333333 0.16666667
-0 0.86666667 0.13333333
0.03333333 0.9 0.16666667
0.06666667 0.86666667 0.13333333
0.1 0.9 0.16666667
0.13333333 0.86666667 0.13333333
0.16666667 0.9 0.16666667
0.2 0.86666667 0.13333333
0.23333333 0.9 0.16666667
0.26666667 0.86666667 0.13333333
0.3 0.9 0.16666667
0.33333333 0.86666667 0.13333333
0.36666667 0.9 0.16666667
0.4 0.86666667 0.13333333
0.43333333 0.9 0.16666667
0.46666667 0.86666667 0.13333333
0.5 0.9 0.16666667
0.53333333 0.86666667 0.13333333
0.56666667 0.9 0.16666667
0.6 0.86666667 0.13333333
0.63333333 0.9 0.16666667
0.66666667 0.86666667 0.13333333
0.7 0.9 0.16666667
0.73333333 0.86666667 0.13333333
0.76666667 0.9 0.16666667
0.8 0.86666667 0.13333333
0.83333333 0.9 0.16666667
0.86666667 0.86666667 0.13333333
0.9 0.9 0.16666667
0.93333333 0.86666667 0.13333333
0.96666667 0.9 0.16666667
-0 0.93333333 0.13333333
0.03333333 0.96666667 0.16666667
0.06666667 0.93333333 0.13333333
0.1 0.96666667 0.16666667
0.13333333 0.93333333 0.13333333
0.16666667 0.96666667 0.16666667
0.2 0.93333333 0.13333333
0.23333333 0.96666667 0.16666667
0.26666667 0.93333333 0.13333333
0.3 0.96666667 0.16666667
0.33333333 0.93333333 0.13333333
0.36666667 0.96666667 0.16666667
0.4 0.93333333 0.13333333
0.43333333 0.96666667 0.16666667
0.46666667 0.93333333 0.13333333
0.5 0.96666667 0.16666667
0.53333333 0.93333333 0.13333333
0.56666667 0.96666667 0.16666667
0.6 0.93333333 0.13333333
0.63333333 0.96666667 0.16666667
0.66666667 0.93333333 0.13333333
0.7 0.96666667 0.16666667
0.73333333 0.93333333 0.13333333
0.76666667 0.96666667 0.16666667
0.8 0.93333333 0.13333333
0.83333333 0.96666667 0.16666667
0.86666667 0.93333333 0.13333333
0.9 0.96666667 0.16666667
0.93333333 0.93333333 0.13333333
0.96666667 0.96666667 0.16666667
-0 -0 0.2
0.03333333 0.03333333 0.23333333
0.06666667 -0 0.2
0.1 0.03333333 0.23333333
0.13333333 -0 0.2
0.16666667 0.03333333 0.23333333
0.2 -0 0.2
0.23333333 0.03333333 0.23333333
0.26666667 -0 0.2
0.3 0.03333333 0.23333333
0.33333333 -0 0.2
0.36666667 0.03333333 0.23333333
0.4 -0 0.2
0.43333333 0.03333333 0.23333333
0.46666667 -0 0.2
0.5 0.03333333 0.23333333
0.53333333 -0 0.2
0.56666667 0.03333333 0.23333333
0.6 -0 0.2
0.63333333 0.03333333 0.23333333
0.66666667 -0 0.2
0.7 0.03333333 0.23333333
0.73333333 -0 0.2
0.76666667 0.03333333 0.23333333
0.8 -0 0.2
0.83333333 0.03333333 0.23333333
0.86666667 -0 0.2
0.9 0.03333333 0.23333333
0.93333333 -0 0.2
0.96666667 0.03333333 0.23333333
-0 0.06666667 0.2
0.03333333 0.1 0.23333333
0.06666667 0.06666667 0.2
0.1 0.1 0.23333333
0.13333333 0.06666667 0.2
0.16666667 0.1 0.23333333
0.2 0.06666667 0.2
0.23333333 0.1 0.23333333
0.26666667 0.06666667 0.2
0.3 0.1 0.23333333
0.33333333 0.06666667 0.2
0.36666667 0.1 0.23333333
0.4 0.06666667 0.2
0.43333333 0.1 0.23333333
0.46666667 0.06666667 0.2
0.5 0.1 0.23333333
0.53333333 0.06666667 0.2
0.56666667 0.1 0.23333333
0.6 0.06666667 0.2
0.63333333 0.1 0.23333333
0.66666667 0.06666667 0.2
0.7 0.1 0.23333333
0.73333333 0.06666667 0.2
0.76666667 0.1 0.23333333
0.8 0.06666667 0.2
0.83333333 0.1 0.23333333
0.86666667 0.06666667 0.2
0.9 0.1 0.23333333
0.93333333 0.06666667 0.2
0.96666667 0.1 0.23333333
-0 0.13333333 0.2
0.03333333 0.16666667 0.23333333
0.06666667 0.13333333 0.2
0.1 0.16666667 0.23333333
0.13333333 0.13333333 0.2
0.16666667 0.16666667 0.23333333
0.2 0.13333333 0.2
0.23333333 0.16666667 0.23333333
0.26666667 0.13333333 0.2
0.3 0.16666667 0.23333333
0.33333333 0.13333333 0.2
0.36666667 0.16666667 0.23333333
0.4 0.13333333 0.2
0.43333333 0.16666667 0.23333333
0.46666667 0.13333333 0.2
0.5 0.16666667 0.23333333
0.53333333 0.13333333 0.2
0.56666667 0.16666667 0.23333333
0.6 0.13333333 0.2
0.63333333 0.16666667 0.23333333
0.66666667 0.13333333 0.2
0.7 0.16666667 0.23333333
0.73333333 0.13333333 0.2
0.76666667 0.16666667 0.23333333
0.8 0.13333333 0.2
0.83333333 0.16666667 0.23333333
0.86666667 0.13333333 0.2
0.9 0.16666667 0.23333333
0.93333333 0.13333333 0.2
0.96666667 0.16666667 0.23333333
-0 0.2 0.2
0.03333333 0.23333333 0.23333333
0.06666667 0.2 0.2
0.1 0.23333333 0.23333333
0.13333333 0.2 0.2
0.16666667 0.23333333 0.23333333
0.2 0.2 0.2
0.23333333 0.23333333 0.23333333
0.26666667 0.2 0.2
0.3 0.23333333 0.23333333
0.33333333 0.2 0.2
0.36666667 0.23333333 0.23333333
0.4 0.2 0.2
0.43333333 0.23333333 0.23333333
0.46666667 0.2 0.2
0.5 0.23333333 0.23333333
0.53333333 0.2 0.2
0.56666667 0.23333333 0.23333333
0.6 0.2 0.2
0.63333333 0.23333333 0.23333333
0.66666667 0.2 0.2
0.7 0.23333333 0.23333333
0.73333333 0.2 0.2
0.76666667 0.23333333 0.23333333
0.8 0.2 0.2
0.83333333 0.23333333 0.23333333
0.86666667 0.2 0.2
0.9 0.23333333 0.23333333
0.93333333 0.2 0.2
0.96666667 0.23333333 0.23333333
-0 0.26666667 0.2
0.03333333 0.3 0.23333333
0.06666667 0.26666667 0.2
0.1 0.3 0.23333333
0.13333333 0.26666667 0.2
0.16666667 0.3 0.23333333
0.2 0.26666667 0.2
0.23333333 0.3 0.23333333
0.26666667 0.26666667 0.2
0.3 0.3 0.23333333
0.33333333 0.26666667 0.2
0.36666667 0.3 0.23333333
0.4 0.26666667 0.2
0.43333333 0.3 0.23333333
0.46666667 0.26666667 0.2
0.5 0.3 0.23333333
0.53333333 0.26666667 0.2
0.56666667 0.3 0.23333333
0.6 0.26666667 0.2
0.63333333 0.3 0.23333333
0.66666667 0.26666667 0.2
0.7 0.3 0.23333333
0.73333333 0.26666667 0.2
0.76666667 0.3 0.23333333
0.8 0.26666667 0.2
0.83333333 0.3 0.23333333
0.86666667 0.26666667 0.2
0.9 0.3 0.23333333
0.93333333 0.26666667 0.2
0.96666667 0.3 0.23333333
-0 0.33333333 0.2
0.03333333 0.36666667 0.23333333
0.06666667 0.33333333 0.2
0.1 0.36666667 0.23333333
0.13333333 0.33333333 0.2
0.16666667 0.36666667 0.23333333
0.2 0.33333333 0.2
0.23333333 0.36666667 0.23333333
0.26666667 0.33333333 0.2
0.3 0.36666667 0.23333333
0.33333333 0.33333333 0.2
0.36666667 0.36666667 0.23333333
0.4 0.33333333 0.2
0.43333333 0.36666667 0.23333333
0.46666667 0.33333333 0.2
0.5 0.36666667 0.23333333
0.53333333 0.33333333 0.2
0.56666667 0.36666667 0.23333333
0.6 0.33333333 0.2
0.63333333 0.36666667 0.23333333
0.66666667 0.33333333 0.2
0.7 0.36666667 0.23333333
0.73333333 0.33333333 0.2
0.76666667 0.36666667 0.23333333
0.8 0.33333333 0.2
0.83333333 0.36666667 0.23333333
0.86666667 0.33333333 0.2
0.9 0.36666667 0.23333333
0.93333333 0.33333333 0.2
0.96666667 0.36666667 0.23333333
-0 0.4 0.2
0.03333333 0.43333333 0.23333333
0.06666667 0.4 0.2
0.1 0.43333333 0.23333333
0.13333333 0.4 0.2
0.16666667 0.43333333 0.23333333
0.2 0.4 0.2
0.23333333 0.43333333 0.23333333
0.26666667 0.4 0.2
0.3 0.43333333 0.23333333
0.33333333 0.4 0.2
0.36666667 0.43333333 0.23333333
0.4 0.4 0.2
0.43333333 0.43333333 0.23333333
0.46666667 0.4 0.2
0.5 0.43333333 0.23333333
0.53333333 0.4 0.2
0.56666667 0.43333333 0.23333333
0.6 0.4 0.2
0.63333333 0.43333333 0.23333333
0.66666667 0.4 0.2
0.7 0.43333333 0.23333333
0.73333333 0.4 0.2
0.76666667 0.43333333 0.23333333
0.8 0.4 0.2
0.83333333 0.43333333 0.23333333
0.86666667 0.4 0.2
0.9 0.43333333 0.23333333
0.93333333 0.4 0.2
0.96666667 0.43333333 0.23333333
-0 0.46666667 0.2
0.03333333 0.5 0.23333333
0.06666667 0.46666667 0.2
0.1 0.5 0.23333333
0.13333333 0.46666667 0.2
0.16666667 0.5 0.23333333
0.2 0.46666667 0.2
0.23333333 0.5 0.23333333
0.26666667 0.46666667 0.2
0.3 0.5 0.23333333
0.33333333 0.46666667 0.2
0.36666667 0.5 0.23333333
0.4 0.46666667 0.2
0.43333333 0.5 0.23333333
0.46666667 0.46666667 0.2
0.5 0.5 0.23333333
0.53333333 0.46666667 0.2
0.56666667 0.5 0.23333333
0.6 0.46666667 0.2
0.63333333 0.5 0.23333333
0.66666667 0.46666667 0.2
0.7 0.5 0.23333333
0.73333333 0.46666667 0.2
0.76666667 0.5 0.23333333
0.8 0.46666667 0.2
0.83333333 0.5 0.23333333
0.86666667 0.46666667 0.2
0.9 0.5 0.23333333
0.93333333 0.46666667 0.2
0.96666667 0.5 0.23333333
-0 0.53333333 0.2
0.03333333 0.56666667 0.23333333
0.06666667 0.53333333 0.2
0.1 0.56666667 0.23333333
0.13333333 0.53333333 0.2
0.16666667 0.56666667 0.23333333
0.2 0.53333333 0.2
0.23333333 0.56666667 0.23333333
0.26666667 0.53333333 0.2
0.3 0.56666667 0.23333333
0.33333333 0.53333333 0.2
0.36666667 0.56666667 0.23333333
0.4 0.53333333 0.2
0.43333333 0.56666667 0.23333333
0.46666667 0.53333333 0.2
0.5 0.56666667 0.23333333
0.53333333 0.53333333 0.2
0.56666667 0.56666667 0.23333333
0.6 0.53333333 0.2
0.63333333 0.56666667 0.23333333
0.66666667 0.53333333 0.2
0.7 0.56666667 0.23333333
0.73333333 0.53333333 0.2
0.76666667 0.56666667 0.23333333
0.8 0.53333333 0.2
0.83333333 0.56666667 0.23333333
0.86666667 0.53333333 0.2
0.9 0.56666667 0.23333333
0.93333333 0.53333333 0.2
0.96666667 0.56666667 0.23333333
-0 0.6 0.2
0.03333333 0.63333333 0.23333333
0.06666667 0.6 0.2
0.1 0.63333333 0.23333333
0.13333333 0.6 0.2
0.16666667 0.63333333 0.23333333
0.2 0.6 0.2
0.23333333 0.63333333 0.23333333
0.26666667 0.6 0.2
0.3 0.63333333 0.23333333
0.33333333 0.6 0.2
0.36666667 0.63333333 0.23333333
0.4 0.6 0.2
0.43333333 0.63333333 0.23333333
0.46666667 0.6 0.2
0.5 0.63333333 0.23333333
0.53333333 0.6 0.2
0.56666667 0.63333333 0.23333333
0.6 0.6 0.2
0.63333333 0.63333333 0.23333333
0.66666667 0.6 0.2
0.7 0.63333333 0.23333333
0.73333333 0.6 0.2
0.76666667 0.63333333 0.23333333
0.8 0.6 0.2
0.83333333 0.63333333 0.23333333
0.86666667 0.6 0.2
0.9 0.63333333 0.23333333
0.93333333 0.6 0.2
0.96666667 0.63333333 0.23333333
-0 0.66666667 0.2
0.03333333 0.7 0.23333333
0.06666667 0.66666667 0.2
0.1 0.7 0.23333333
0.13333333 0.66666667 0.2
0.16666667 0.7 0.23333333
0.2 0.66666667 0.2
0.23333333 0.7 0.23333333
0.26666667 0.66666667 0.2
0.3 0.7 0.23333333
0.33333333 0.66666667 0.2
0.36666667 0.7 0.23333333
0.4 0.66666667 0.2
0.43333333 0.7 0.23333333
0.46666667 0.66666667 0.2
0.5 0.7 0.23333333
0.53333333 0.66666667 0.2
0.56666667 0.7 0.23333333
0.6 0.66666667 0.2
0.63333333 0.7 0.23333333
0.66666667 0.66666667 0.2
0.7 0.7 0.23333333
0.73333333 0.66666667 0.2
0.76666667 0.7 0.23333333
0.8 0.66666667 0.2
0.83333333 0.7 0.23333333
0.86666667 0.66666667 0.2
0.9 0.7 0.23333333
0.93333333 0.66666667 0.2
0.96666667 0.7 0.23333333
-0 0.73333333 0.2
0.03333333 0.76666667 0.23333333
0.06666667 0.73333333 0.2
0.1 0.76666667 0.23333333
0.13333333 0.73333333 0.2
0.16666667 0.76666667 0.23333333
0.2 0.73333333 0.2
0.23333333 0.76666667 0.23333333
0.26666667 0.73333333 0.2
0.3 0.76666667 0.23333333
0.33333333 0.73333333 0.2
0.36666667 0.76666667 0.23333333
0.4 0.73333333 0.2
0.43333333 0.76666667 0.23333333
0.46666667 0.73333333 0.2
0.5 0.76666667 0.23333333
0.53333333 0.73333333 0.2
0.56666667 0.76666667 0.23333333
0.6 0.73333333 0.2
0.63333333 0.76666667 0.23333333
0.66666667 0.73333333 0.2
0.7 0.76666667 0.23333333
0.73333333 0.73333333 0.2
0.76666667 0.76666667 0.23333333
0.8 0.73333333 0.2
0.83333333 0.76666667 0.23333333
0.86666667 0.73333333 0.2
0.9 0.76666667 0.23333333
0.93333333 0.73333333 0.2
0.96666667 0.76666667 0.23333333
-0 0.8 0.2
0.03333333 0.83333333 0.23333333
0.06666667 0.8 0.2
0.1 0.83333333 0.23333333
0.13333333 0.8 0.2
0.16666667 0.83333333 0.23333333
0.2 0.8 0.2
0.23333333 0.83333333 0.23333333
0.26666667 0.8 0.2
0.3 0.83333333 0.23333333
0.33333333 0.8 0.2
0.36666667 0.83333333 0.23333333
0.4 0.8 0.2
0.43333333 0.83333333 0.23333333
0.46666667 0.8 0.2
0.5 0.83333333 0.23333333
0.53333333 0.8 0.2
0.56666667 0.83333333 0.23333333
0.6 0.8 0.2
0.63333333 0.83333333 0.23333333
0.66666667 0.8 0.2
0.7 0.83333333 0.23333333
0.73333333 0.8 0.2
0.76666667 0.83333333 0.23333333
0.8 0.8 0.2
0.83333333 0.83333333 0.23333333
0.86666667 0.8 0.2
0.9 0.83333333 0.23333333
0.93333333 0.8 0.2
0.96666667 0.83333333 0.23333333
-0 0.86666667 0.2
0.03333333 0.9 0.23333333
0.06666667 0.86666667 0.2
0.1 0.9 0.23333333
0.13333333 0.86666667 0.2
0.16666667 0.9 0.23333333
0.2 0.86666667 0.2
0.23333333 0.9 0.23333333
0.26666667 0.86666667 0.2
0.3 0.9 0.23333333
0.33333333 0.86666667 0.2
0.36666667 0.9 0.23333333
0.4 0.86666667 0.2
0.43333333 0.9 0.23333333
0.46666667 0.86666667 0.2
0.5 0.9 0.23333333
0.53333333 0.86666667 0.2
0.56666667 0.9 0.23333333
0.6 0.86666667 0.2
0.63333333 0.9 0.23333333
0.66666667 0.86666667 0.2
0.7 0.9 0.23333333
0.73333333 0.86666667 0.2
0.76666667 0.9 0.23333333
0.8 0.86666667 0.2
0.83333333 0.9 0.23333333
0.86666667 0.86666667 0.2
0.9 0.9 0.23333333
0.93333333 0.86666667 0.2
0.96666667 0.9 0.23333333
-0 0.93333333 0.2
0.03333333 0.96666667 0.23333333
0.06666667 0.93333333 0.2
0.1 0.96666667 0.23333333
0.13333333 0.93333333 0.2
0.16666667 0.96666667 0.23333333
0.2 0.93333333 0.2
0.23333333 0.96666667 0.23333333
0.26666667 0.93333333 0.2
0.3 0.96666667 0.23333333
0.33333333 0.93333333 0.2
0.36666667 0.96666667 0.23333333
0.4 0.93333333 0.2
0.43333333 0.96666667 0.23333333
0.46666667 0.93333333 0.2
0.5 0.96666667 0.23333333
0.53333333 0.93333333 0.2
0.56666667 0.96666667 0.23333333
0.6 0.93333333 0.2
0.63333333 0.96666667 0.23333333
0.66666667 0.93333333 0.2
0.7 0.96666667 0.23333333
0.73333333 0.93333333 0.2
0.76666667 0.96666667 0.23333333
0.8 0.93333333 0.2
0.83333333 0.96666667 0.23333333
0.86666667 0.93333333 0.2
0.9 0.96666667 0.23333333
0.93333333 0.93333333 0.2
0.96666667 0.96666667 0.23333333
-0 -0 0.26666667
0.03333333 0.03333333 0.3
0.06666667 -0 0.26666667
0.1 0.03333333 0.3
0.13333333 -0 0.26666667
0.16666667 0.03333333 0.3
0.2 -0 0.26666667
0.23333333 0.03333333 0.3
0.26666667 -0 0.26666667
0.3 0.03333333 0.3
0.33333333 -0 0.26666667
0.36666667 0.03333333 0.3
0.4 -0 0.26666667
0.43333333 0.03333333 0.3
0.46666667 -0 0.26666667
0.5 0.03333333 0.3
0.53333333 -0 0.26666667
0.56666667 0.03333333 0.3
0.6 -0 0.26666667
0.63333333 0.03333333 0.3
0.66666667 -0 0.26666667
0.7 0.03333333 0.3
0.73333333 -0 0.26666667
0.76666667 0.03333333 0.3
0.8 -0 0.26666667
0.83333333 0.03333333 0.3
0.86666667 -0 0.26666667
0.9 0.03333333 0.3
0.93333333 -0 0.26666667
0.96666667 0.03333333 0.3
-0 0.06666667 0.26666667
0.03333333 0.1 0.3
0.06666667 0.06666667 0.26666667
0.1 0.1 0.3
0.13333333 0.06666667 0.26666667
0.16666667 0.1 0.3
0.2 0.06666667 0.26666667
0.23333333 0.1 0.3
0.26666667 0.06666667 0.26666667
0.3 0.1 0.3
0.33333333 0.06666667 0.26666667
0.36666667 0.1 0.3
0.4 0.06666667 0.26666667
0.43333333 0.1 0.3
0.46666667 0.06666667 0.26666667
0.5 0.1 0.3
0.53333333 0.06666667 0.26666667
0.56666667 0.1 0.3
0.6 0.06666667 0.26666667
0.63333333 0.1 0.3
0.66666667 0.06666667 0.26666667
0.7 0.1 0.3
0.73333333 0.06666667 0.26666667
0.76666667 0.1 0.3
0.8 0.06666667 0.26666667
0.83333333 0.1 0.3
0.86666667 0.06666667 0.26666667
0.9 0.1 0.3
0.93333333 0.06666667 0.26666667
0.96666667 0.1 0.3
-0 0.13333333 0.26666667
0.03333333 0.16666667 0.3
0.06666667 0.13333333 0.26666667
0.1 0.16666667 0.3
0.13333333 0.13333333 0.26666667
0.16666667 0.16666667 0.3
0.2 0.13333333 0.26666667
0.23333333 0.16666667 0.3
0.26666667 0.13333333 0.26666667
0.3 0.16666667 0.3
0.33333333 0.13333333 0.26666667
0.36666667 0.16666667 0.3
0.4 0.13333333 0.26666667
0.43333333 0.16666667 0.3
0.46666667 0.13333333 0.26666667
0.5 0.16666667 0.3
0.53333333 0.13333333 0.26666667
0.56666667 0.16666667 0.3
0.6 0.13333333 0.26666667
0.63333333 0.16666667 0.3
0.66666667 0.13333333 0.26666667
0.7 0.16666667 0.3
0.73333333 0.13333333 0.26666667
0.76666667 0.16666667 0.3
0.8 0.13333333 0.26666667
0.83333333 0.16666667 0.3
0.86666667 0.13333333 0.26666667
0.9 0.16666667 0.3
0.93333333 0.13333333 0.26666667
0.96666667 0.16666667 0.3
-0 0.2 0.26666667
0.03333333 0.23333333 0.3
0.06666667 0.2 0.26666667
0.1 0.23333333 0.3
0.13333333 0.2 0.26666667
0.16666667 0.23333333 0.3
0.2 0.2 0.26666667
0.23333333 0.23333333 0.3
0.26666667 0.2 0.26666667
0.3 0.23333333 0.3
0.33333333 0.2 0.26666667
0.36666667 0.23333333 0.3
0.4 0.2 0.26666667
0.43333333 0.23333333 0.3
0.46666667 0.2 0.26666667
0.5 0.23333333 0.3
0.53333333 0.2 0.26666667
0.56666667 0.23333333 0.3
0.6 0.2 0.26666667
0.63333333 0.23333333 0.3
0.66666667 0.2 0.26666667
0.7 0.23333333 0.3
0.73333333 0.2 0.26666667
0.76666667 0.23333333 0.3
0.8 0.2 0.26666667
0.83333333 0.23333333 0.3
0.86666667 0.2 0.26666667
0.9 0.23333333 0.3
0.93333333 0.2 0.26666667
0.96666667 0.23333333 0.3
-0 0.26666667 0.26666667
0.03333333 0.3 0.3
0.06666667 0.26666667 0.26666667
0.1 0.3 0.3
0.13333333 0.26666667 0.26666667
0.16666667 0.3 0.3
0.2 0.26666667 0.26666667
0.23333333 0.3 0.3
0.26666667 0.26666667 0.26666667
0.3 0.3 0.3
0.33333333 0.26666667 0.26666667
0.36666667 0.3 0.3
0.4 0.26666667 0.26666667
0.43333333 0.3 0.3
0.46666667 0.26666667 0.26666667
0.5 0.3 0.3
0.53333333 0.26666667 0.26666667
0.56666667 0.3 0.3
0.6 0.26666667 0.26666667
0.63333333 0.3 0.3
0.66666667 0.26666667 0.26666667
0.7 0.3 0.3
0.73333333 0.26666667 0.26666667
0.76666667 0.3 0.3
0.8 0.26666667 0.26666667
0.83333333 0.3 0.3
0.86666667 0.26666667 0.26666667
0.9 0.3 0.3
0.93333333 0.26666667 0.26666667
0.96666667 0.3 0.3
-0 0.33333333 0.26666667
0.03333333 0.36666667 0.3
0.06666667 0.33333333 0.26666667
0.1 0.36666667 0.3
0.13333333 0.33333333 0.26666667
0.16666667 0.36666667 0.3
0.2 0.33333333 0.26666667
0.23333333 0.36666667 0.3
0.26666667 0.33333333 0.26666667
0.3 0.36666667 0.3
0.33333333 0.33333333 0.26666667
0.36666667 0.36666667 0.3
0.4 0.33333333 0.26666667
0.43333333 0.36666667 0.3
0.46666667 0.33333333 0.26666667
0.5 0.36666667 0.3
0.53333333 0.33333333 0.26666667
0.56666667 0.36666667 0.3
0.6 0.33333333 0.26666667
0.63333333 0.36666667 0.3
0.66666667 0.33333333 0.26666667
0.7 0.36666667 0.3
0.73333333 0.33333333 0.26666667
0.76666667 0.36666667 0.3
0.8 0.33333333 0.26666667
0.83333333 0.36666667 0.3
0.86666667 0.33333333 0.26666667
0.9 0.36666667 0.3
0.93333333 0.33333333 0.26666667
0.96666667 0.36666667 0.3
-0 0.4 0.26666667
0.03333333 0.43333333 0.3
0.06666667 0.4 0.26666667
0.1 0.43333333 0.3
0.13333333 0.4 0.26666667
0.16666667 0.43333333 0.3
0.2 0.4 0.26666667
0.23333333 0.43333333 0.3
0.26666667 0.4 0.26666667
0.3 0.43333333 0.3
0.33333333 0.4 0.26666667
0.36666667 0.43333333 0.3
0.4 0.4 0.26666667
0.43333333 0.43333333 0.3
0.46666667 0.4 0.26666667
0.5 0.43333333 0.3
0.53333333 0.4 0.26666667
0.56666667 0.43333333 0.3
0.6 0.4 0.26666667
0.63333333 0.43333333 0.3
0.66666667 0.4 0.26666667
0.7 0.43333333 0.3
0.73333333 0.4 0.26666667
0.76666667 0.43333333 0.3
0.8 0.4 0.26666667
0.83333333 0.43333333 0.3
0.86666667 0.4 0.26666667
0.9 0.43333333 0.3
0.93333333 0.4 0.26666667
0.96666667 0.43333333 0.3
-0 0.46666667 0.26666667
0.03333333 0.5 0.3
0.06666667 0.46666667 0.26666667
0.1 0.5 0.3
0.13333333 0.46666667 0.26666667
0.16666667 0.5 0.3
0.2 0.46666667 0.26666667
0.23333333 0.5 0.3
0.26666667 0.46666667 0.26666667
0.3 0.5 0.3
0.33333333 0.46666667 0.26666667
0.36666667 0.5 0.3
0.4 0.46666667 0.26666667
0.43333333 0.5 0.3
0.46666667 0.46666667 0.26666667
0.5 0.5 0.3
0.53333333 0.46666667 0.26666667
0.56666667 0.5 0.3
0.6 0.46666667 0.26666667
0.63333333 0.5 0.3
0.66666667 0.46666667 0.26666667
0.7 0.5 0.3
0.73333333 0.46666667 0.26666667
0.76666667 0.5 0.3
0.8 0.46666667 0.26666667
0.83333333 0.5 0.3
0.86666667 0.46666667 0.26666667
0.9 0.5 0.3
0.93333333 0.46666667 0.26666667
0.96666667 0.5 0.3
-0 0.53333333 0.26666667
0.03333333 0.56666667 0.3
0.06666667 0.53333333 0.26666667
0.1 0.56666667 0.3
0.13333333 0.53333333 0.26666667
0.16666667 0.56666667 0.3
0.2 0.53333333 0.26666667
0.23333333 0.56666667 0.3
0.26666667 0.53333333 0.26666667
0.3 0.56666667 0.3
0.33333333 0.53333333 0.26666667
0.36666667 0.56666667 0.3
0.4 0.53333333 0.26666667
0.43333333 0.56666667 0.3
0.46666667 0.53333333 0.26666667
0.5 0.56666667 0.3
0.53333333 0.53333333 0.26666667
0.56666667 0.56666667 0.3
0.6 0.53333333 0.26666667
0.63333333 0.56666667 0.3
0.66666667 0.53333333 0.26666667
0.7 0.56666667 0.3
0.73333333 0.53333333 0.26666667
0.76666667 0.56666667 0.3
0.8 0.53333333 0.26666667
0.83333333 0.56666667 0.3
0.86666667 0.53333333 0.26666667
0.9 0.56666667 0.3
0.93333333 0.53333333 0.26666667
0.96666667 0.56666667 0.3
-0 0.6 0.26666667
0.03333333 0.63333333 0.3
0.06666667 0.6 0.26666667
0.1 0.63333333 0.3
0.13333333 0.6 0.26666667
0.16666667 0.63333333 0.3
0.2 0.6 0.26666667
0.23333333 0.63333333 0.3
0.26666667 0.6 0.26666667
0.3 0.63333333 0.3
0.33333333 0.6 0.26666667
0.36666667 0.63333333 0.3
0.4 0.6 0.26666667
0.43333333 0.63333333 0.3
0.46666667 0.6 0.26666667
0.5 0.63333333 0.3
0.53333333 0.6 0.26666667
0.56666667 0.63333333 0.3
0.6 0.6 0.26666667
0.63333333 0.63333333 0.3
0.66666667 0.6 0.26666667
0.7 0.63333333 0.3
0.73333333 0.6 0.26666667
0.76666667 0.63333333 0.3
0.8 0.6 0.26666667
0.83333333 0.63333333 0.3
0.86666667 0.6 0.26666667
0.9 0.63333333 0.3
0.93333333 0.6 0.26666667
0.96666667 0.63333333 0.3
-0 0.66666667 0.26666667
0.03333333 0.7 0.3
0.06666667 0.66666667 0.26666667
0.1 0.7 0.3
0.13333333 0.66666667 0.26666667
0.16666667 0.7 0.3
0.2 0.66666667 0.26666667
0.23333333 0.7 0.3
0.26666667 0.66666667 0.26666667
0.3 0.7 0.3
0.33333333 0.66666667 0.26666667
0.36666667 0.7 0.3
0.4 0.66666667 0.26666667
0.43333333 0.7 0.3
0.46666667 0.66666667 0.26666667
0.5 0.7 0.3
0.53333333 0.66666667 0.26666667
0.56666667 0.7 0.3
0.6 0.66666667 0.26666667
0.63333333 0.7 0.3
0.66666667 0.66666667 0.26666667
0.7 0.7 0.3
0.73333333 0.66666667 0.26666667
0.76666667 0.7 0.3
0.8 0.66666667 0.26666667
0.83333333 0.7 0.3
0.86666667 0.66666667 0.26666667
0.9 0.7 0.3
0.93333333 0.66666667 0.26666667
0.96666667 0.7 0.3
-0 0.73333333 0.26666667
0.03333333 0.76666667 0.3
0.06666667 0.73333333 0.26666667
0.1 0.76666667 0.3
0.13333333 0.73333333 0.26666667
0.16666667 0.76666667 0.3
0.2 0.73333333 0.26666667
0.23333333 0.76666667 0.3
0.26666667 0.73333333 0.26666667
0.3 0.76666667 0.3
0.33333333 0.73333333 0.26666667
0.36666667 0.76666667 0.3
0.4 0.73333333 0.26666667
0.43333333 0.76666667 0.3
0.46666667 0.73333333 0.26666667
0.5 0.76666667 0.3
0.53333333 0.73333333 0.26666667
0.56666667 0.76666667 0.3
0.6 0.73333333 0.26666667
0.63333333 0.76666667 0.3
0.66666667 0.73333333 0.26666667
0.7 0.76666667 0.3
0.73333333 0.73333333 0.26666667
0.76666667 0.76666667 0.3
0.8 0.73333333 0.26666667
0.83333333 0.76666667 0.3
0.86666667 0.73333333 0.26666667
0.9 0.76666667 0.3
0.93333333 0.73333333 0.26666667
0.96666667 0.76666667 0.3
-0 0.8 0.26666667
0.03333333 0.83333333 0.3
0.06666667 0.8 0.26666667
0.1 0.83333333 0.3
0.13333333 0.8 0.26666667
0.16666667 0.83333333 0.3
0.2 0.8 0.26666667
0.23333333 0.83333333 0.3
0.26666667 0.8 0.26666667
0.3 0.83333333 0.3
0.33333333 0.8 0.26666667
0.36666667 0.83333333 0.3
0.4 0.8 0.26666667
0.43333333 0.83333333 0.3
0.46666667 0.8 0.26666667
0.5 0.83333333 0.3
0.53333333 0.8 0.26666667
0.56666667 0.83333333 0.3
0.6 0.8 0.26666667
0.63333333 0.83333333 0.3
0.66666667 0.8 0.26666667
0.7 0.83333333 0.3
0.73333333 0.8 0.26666667
0.76666667 0.83333333 0.3
0.8 0.8 0.26666667
0.83333333 0.83333333 0.3
0.86666667 0.8 0.26666667
0.9 0.83333333 0.3
0.93333333 0.8 0.26666667
0.96666667 0.83333333 0.3
-0 0.86666667 0.26666667
0.03333333 0.9 0.3
0.06666667 0.86666667 0.26666667
0.1 0.9 0.3
0.13333333 0.86666667 0.26666667
0.16666667 0.9 0.3
0.2 0.86666667 0.26666667
0.23333333 0.9 0.3
0.26666667 0.86666667 0.26666667
0.3 0.9 0.3
0.33333333 0.86666667 0.26666667
0.36666667 0.9 0.3
0.4 0.86666667 0.26666667
0.43333333 0.9 0.3
0.46666667 0.86666667 0.26666667
0.5 0.9 0.3
0.53333333 0.86666667 0.26666667
0.56666667 0.9 0.3
0.6 0.86666667 0.26666667
0.63333333 0.9 0.3
0.66666667 0.86666667 0.26666667
0.7 0.9 0.3
0.73333333 0.86666667 0.26666667
0.76666667 0.9 0.3
0.8 0.86666667 0.26666667
0.83333333 0.9 0.3
0.86666667 0.86666667 0.26666667
0.9 0.9 0.3
0.93333333 0.86666667 0.26666667
0.96666667 0.9 0.3
-0 0.93333333 0.26666667
0.03333333 0.96666667 0.3
0.06666667 0.93333333 0.26666667
0.1 0.96666667 0.3
0.13333333 0.93333333 0.26666667
0.16666667 0.96666667 0.3
0.2 0.93333333 0.26666667
0.23333333 0.96666667 0.3
0.26666667 0.93333333 0.26666667
0.3 0.96666667 0.3
0.33333333 0.93333333 0.26666667
0.36666667 0.96666667 0.3
0.4 0.93333333 0.26666667
0.43333333 0.96666667 0.3
0.46666667 0.93333333 0.26666667
0.5 0.96666667 0.3
0.53333333 0.93333333 0.26666667
0.56666667 0.96666667 0.3
0.6 0.93333333 0.26666667
0.63333333 0.96666667 0.3
0.66666667 0.93333333 0.26666667
0.7 0.96666667 0.3
0.73333333 0.93333333 0.26666667
0.76666667 0.96666667 0.3
0.8 0.93333333 0.26666667
0.83333333 0.96666667 0.3
0.86666667 0.93333333 0.26666667
0.9 0.96666667 0.3
0.93333333 0.93333333 0.26666667
0.96666667 0.96666667 0.3
-0 -0 0.33333333
0.03333333 0.03333333 0.36666667
0.06666667 -0 0.33333333
0.1 0.03333333 0.36666667
0.13333333 -0 0.33333333
0.16666667 0.03333333 0.36666667
0.2 -0 0.33333333
0.23333333 0.03333333 0.36666667
0.26666667 -0 0.33333333
0.3 0.03333333 0.36666667
0.33333333 -0 0.33333333
0.36666667 0.03333333 0.36666667
0.4 -0 0.33333333
0.43333333 0.03333333 0.36666667
0.46666667 -0 0.33333333
0.5 0.03333333 0.36666667
0.53333333 -0 0.33333333
0.56666667 0.03333333 0.36666667
0.6 -0 0.33333333
0.63333333 0.03333333 0.36666667
0.66666667 -0 0.33333333
0.7 0.03333333 0.36666667
0.73333333 -0 0.33333333
0.76666667 0.03333333 0.36666667
0.8 -0 0.33333333
0.83333333 0.03333333 0.36666667
0.86666667 -0 0.33333333
0.9 0.03333333 0.36666667
0.93333333 -0 0.33333333
0.96666667 0.03333333 0.36666667
-0 0.06666667 0.33333333
0.03333333 0.1 0.36666667
0.06666667 0.06666667 0.33333333
0.1 0.1 0.36666667
0.13333333 0.06666667 0.33333333
0.16666667 0.1 0.36666667
0.2 0.06666667 0.33333333
0.23333333 0.1 0.36666667
0.26666667 0.06666667 0.33333333
0.3 0.1 0.36666667
0.33333333 0.06666667 0.33333333
0.36666667 0.1 0.36666667
0.4 0.06666667 0.33333333
0.43333333 0.1 0.36666667
0.46666667 0.06666667 0.33333333
0.5 0.1 0.36666667
0.53333333 0.06666667 0.33333333
0.56666667 0.1 0.36666667
0.6 0.06666667 0.33333333
0.63333333 0.1 0.36666667
0.66666667 0.06666667 0.33333333
0.7 0.1 0.36666667
0.73333333 0.06666667 0.33333333
0.76666667 0.1 0.36666667
0.8 0.06666667 0.33333333
0.83333333 0.1 0.36666667
0.86666667 0.06666667 0.33333333
0.9 0.1 0.36666667
0.93333333 0.06666667 0.33333333
0.96666667 0.1 0.36666667
-0 0.13333333 0.33333333
0.03333333 0.16666667 0.36666667
0.06666667 0.13333333 0.33333333
0.1 0.16666667 0.36666667
0.13333333 0.13333333 0.33333333
0.16666667 0.16666667 0.36666667
0.2 0.13333333 0.33333333
0.23333333 0.16666667 0.36666667
0.26666667 0.13333333 0.33333333
0.3 0.16666667 0.36666667
0.33333333 0.13333333 0.33333333
0.36666667 0.16666667 0.36666667
0.4 0.13333333 0.33333333
0.43333333 0.16666667 0.36666667
0.46666667 0.13333333 0.33333333
0.5 0.16666667 0.36666667
0.53333333 0.13333333 0.33333333
0.56666667 0.16666667 0.36666667
0.6 0.13333333 0.33333333
0.63333333 0.16666667 0.36666667
0.66666667 0.13333333 0.33333333
0.7 0.16666667 0.36666667
0.73333333 0.13333333 0.33333333
0.76666667 0.16666667 0.36666667
0.8 0.13333333 0.33333333
0.83333333 0.16666667 0.36666667
0.86666667 0.13333333 0.33333333
0.9 0.16666667 0.36666667
0.93333333 0.13333333 0.33333333
0.96666667 0.16666667 0.36666667
-0 0.2 0.33333333
0.03333333 0.23333333 0.36666667
0.06666667 0.2 0.33333333
0.1 0.23333333 0.36666667
0.13333333 0.2 0.33333333
0.16666667 0.23333333 0.36666667
0.2 0.2 0.33333333
0.23333333 0.23333333 0.36666667
0.26666667 0.2 0.33333333
0.3 0.23333333 0.36666667
0.33333333 0.2 0.33333333
0.36666667 0.23333333 0.36666667
0.4 0.2 0.33333333
0.43333333 0.23333333 0.36666667
0.46666667 0.2 0.33333333
0.5 0.23333333 0.36666667
0.53333333 0.2 0.33333333
0.56666667 0.23333333 0.36666667
0.6 0.2 0.33333333
0.63333333 0.23333333 0.36666667
0.66666667 0.2 0.33333333
0.7 0.23333333 0.36666667
0.73333333 0.2 0.33333333
0.76666667 0.23333333 0.36666667
0.8 0.2 0.33333333
0.83333333 0.23333333 0.36666667
0.86666667 0.2 0.33333333
0.9 0.23333333 0.36666667
0.93333333 0.2 0.33333333
0.96666667 0.23333333 0.36666667
-0 0.26666667 0.33333333
0.03333333 0.3 0.36666667
0.06666667 0.26666667 0.33333333
0.1 0.3 0.36666667
0.13333333 0.26666667 0.33333333
0.16666667 0.3 0.36666667
0.2 0.26666667 0.33333333
0.23333333 0.3 0.36666667
0.26666667 0.26666667 0.33333333
0.3 0.3 0.36666667
0.33333333 0.26666667 0.33333333
0.36666667 0.3 0.36666667
0.4 0.26666667 0.33333333
0.43333333 0.3 0.36666667
0.46666667 0.26666667 0.33333333
0.5 0.3 0.36666667
0.53333333 0.26666667 0.33333333
0.56666667 0.3 0.36666667
0.6 0.26666667 0.33333333
0.63333333 0.3 0.36666667
0.66666667 0.26666667 0.33333333
0.7 0.3 0.36666667
0.73333333 0.26666667 0.33333333
0.76666667 0.3 0.36666667
0.8 0.26666667 0.33333333
0.83333333 0.3 0.36666667
0.86666667 0.26666667 0.33333333
0.9 0.3 0.36666667
0.93333333 0.26666667 0.33333333
0.96666667 0.3 0.36666667
-0 0.33333333 0.33333333
0.03333333 0.36666667 0.36666667
0.06666667 0.33333333 0.33333333
0.1 0.36666667 0.36666667
0.13333333 0.33333333 0.33333333
0.16666667 0.36666667 0.36666667
0.2 0.33333333 0.33333333
0.23333333 0.36666667 0.36666667
0.26666667 0.33333333 0.33333333
0.3 0.36666667 0.36666667
0.33333333 0.33333333 0.33333333
0.36666667 0.36666667 0.36666667
0.4 0.33333333 0.33333333
0.43333333 0.36666667 0.36666667
0.46666667 0.33333333 0.33333333
0.5 0.36666667 0.36666667
0.53333333 0.33333333 0.33333333
0.56666667 0.36666667 0.36666667
0.6 0.33333333 0.33333333
0.63333333 0.36666667 0.36666667
0.66666667 0.33333333 0.33333333
0.7 0.36666667 0.36666667
0.73333333 0.33333333 0.33333333
0.76666667 0.36666667 0.36666667
0.8 0.33333333 0.33333333
0.83333333 0.36666667 0.36666667
0.86666667 0.33333333 0.33333333
0.9 0.36666667 0.36666667
0.93333333 0.33333333 0.33333333
0.96666667 0.36666667 0.36666667
-0 0.4 0.33333333
0.03333333 0.43333333 0.36666667
0.06666667 0.4 0.33333333
0.1 0.43333333 0.36666667
0.13333333 0.4 0.33333333
0.16666667 0.43333333 0.36666667
0.2 0.4 0.33333333
0.23333333 0.43333333 0.36666667
0.26666667 0.4 0.33333333
0.3 0.43333333 0.36666667
0.33333333 0.4 0.33333333
0.36666667 0.43333333 0.36666667
0.4 0.4 0.33333333
0.43333333 0.43333333 0.36666667
0.46666667 0.4 0.33333333
0.5 0.43333333 0.36666667
0.53333333 0.4 0.33333333
0.56666667 0.43333333 0.36666667
0.6 0.4 0.33333333
0.63333333 0.43333333 0.36666667
0.66666667 0.4 0.33333333
0.7 0.43333333 0.36666667
0.73333333 0.4 0.33333333
0.76666667 0.43333333 0.36666667
0.8 0.4 0.33333333
0.83333333 0.43333333 0.36666667
0.86666667 0.4 0.33333333
0.9 0.43333333 0.36666667
0.93333333 0.4 0.33333333
0.96666667 0.43333333 0.36666667
-0 0.46666667 0.33333333
0.03333333 0.5 0.36666667
0.06666667 0.46666667 0.33333333
0.1 0.5 0.36666667
0.13333333 0.46666667 0.33333333
0.16666667 0.5 0.36666667
0.2 0.46666667 0.33333333
0.23333333 0.5 0.36666667
0.26666667 0.46666667 0.33333333
0.3 0.5 0.36666667
0.33333333 0.46666667 0.33333333
0.36666667 0.5 0.36666667
0.4 0.46666667 0.33333333
0.43333333 0.5 0.36666667
0.46666667 0.46666667 0.33333333
0.5 0.5 0.36666667
0.53333333 0.46666667 0.33333333
0.56666667 0.5 0.36666667
0.6 0.46666667 0.33333333
0.63333333 0.5 0.36666667
0.66666667 0.46666667 0.33333333
0.7 0.5 0.36666667
0.73333333 0.46666667 0.33333333
0.76666667 0.5 0.36666667
0.8 0.46666667 0.33333333
0.83333333 0.5 0.36666667
0.86666667 0.46666667 0.33333333
0.9 0.5 0.36666667
0.93333333 0.46666667 0.33333333
0.96666667 0.5 0.36666667
-0 0.53333333 0.33333333
0.03333333 0.56666667 0.36666667
0.06666667 0.53333333 0.33333333
0.1 0.56666667 0.36666667
0.13333333 0.53333333 0.33333333
0.16666667 0.56666667 0.36666667
0.2 0.53333333 0.33333333
0.23333333 0.56666667 0.36666667
0.26666667 0.53333333 0.33333333
0.3 0.56666667 0.36666667
0.33333333 0.53333333 0.33333333
0.36666667 0.56666667 0.36666667
0.4 0.53333333 0.33333333
0.43333333 0.56666667 0.36666667
0.46666667 0.53333333 0.33333333
0.5 0.56666667 0.36666667
0.53333333 0.53333333 0.33333333
0.56666667 0.56666667 0.36666667
0.6 0.53333333 0.33333333
0.63333333 0.56666667 0.36666667
0.66666667 0.53333333 0.33333333
0.7 0.56666667 0.36666667
0.73333333 0.53333333 0.33333333
0.76666667 0.56666667 0.36666667
0.8 0.53333333 0.33333333
0.83333333 0.56666667 0.36666667
0.86666667 0.53333333 0.33333333
0.9 0.56666667 0.36666667
0.93333333 0.53333333 0.33333333
0.96666667 0.56666667 0.36666667
-0 0.6 0.33333333
0.03333333 0.63333333 0.36666667
0.06666667 0.6 0.33333333
0.1 0.63333333 0.36666667
0.13333333 0.6 0.33333333
0.16666667 0.63333333 0.36666667
0.2 0.6 0.33333333
0.23333333 0.63333333 0.36666667
0.26666667 0.6 0.33333333
0.3 0.63333333 0.36666667
0.33333333 0.6 0.33333333
0.36666667 0.63333333 0.36666667
0.4 0.6 0.33333333
0.43333333 0.63333333 0.36666667
0.46666667 0.6 0.33333333
0.5 0.63333333 0.36666667
0.53333333 0.6 0.33333333
0.56666667 0.63333333 0.36666667
0.6 0.6 0.33333333
0.63333333 0.63333333 0.36666667
0.66666667 0.6 0.33333333
0.7 0.63333333 0.36666667
0.73333333 0.6 0.33333333
0.76666667 0.63333333 0.36666667
0.8 0.6 0.33333333
0.83333333 0.63333333 0.36666667
0.86666667 0.6 0.33333333
0.9 0.63333333 0.36666667
0.93333333 0.6 0.33333333
0.96666667 0.63333333 0.36666667
-0 0.66666667 0.33333333
0.03333333 0.7 0.36666667
0.06666667 0.66666667 0.33333333
0.1 0.7 0.36666667
0.13333333 0.66666667 0.33333333
0.16666667 0.7 0.36666667
0.2 0.66666667 0.33333333
0.23333333 0.7 0.36666667
0.26666667 0.66666667 0.33333333
0.3 0.7 0.36666667
0.33333333 0.66666667 0.33333333
0.36666667 0.7 0.36666667
0.4 0.66666667 0.33333333
0.43333333 0.7 0.36666667
0.46666667 0.66666667 0.33333333
0.5 0.7 0.36666667
0.53333333 0.66666667 0.33333333
0.56666667 0.7 0.36666667
0.6 0.66666667 0.33333333
0.63333333 0.7 0.36666667
0.66666667 0.66666667 0.33333333
0.7 0.7 0.36666667
0.73333333 0.66666667 0.33333333
0.76666667 0.7 0.36666667
0.8 0.66666667 0.33333333
0.83333333 0.7 0.36666667
0.86666667 0.66666667 0.33333333
0.9 0.7 0.36666667
0.93333333 0.66666667 0.33333333
0.96666667 0.7 0.36666667
-0 0.73333333 0.33333333
0.03333333 0.76666667 0.36666667
0.06666667 0.73333333 0.33333333
0.1 0.76666667 0.36666667
0.13333333 0.73333333 0.33333333
0.16666667 0.76666667 0.36666667
0.2 0.73333333 0.33333333
0.23333333 0.76666667 0.36666667
0.26666667 0.73333333 0.33333333
0.3 0.76666667 0.36666667
0.33333333 0.73333333 0.33333333
0.36666667 0.76666667 0.36666667
0.4 0.73333333 0.33333333
0.43333333 0.76666667 0.36666667
0.46666667 0.73333333 0.33333333
0.5 0.76666667 0.36666667
0.53333333 0.73333333 0.33333333
0.56666667 0.76666667 0.36666667
0.6 0.73333333 0.33333333
0.63333333 0.76666667 0.36666667
0.66666667 0.73333333 0.33333333
0.7 0.76666667 0.36666667
0.73333333 0.73333333 0.33333333
0.76666667 0.76666667 0.36666667
0.8 0.73333333 0.33333333
0.83333333 0.76666667 0.36666667
0.86666667 0.73333333 0.33333333
0.9 0.76666667 0.36666667
0.93333333 0.73333333 0.33333333
0.96666667 0.76666667 0.36666667
-0 0.8 0.33333333
0.03333333 0.83333333 0.36666667
0.06666667 0.8 0.33333333
0.1 0.83333333 0.36666667
0.13333333 0.8 0.33333333
0.16666667 0.83333333 0.36666667
0.2 0.8 0.33333333
0.23333333 0.83333333 0.36666667
0.26666667 0.8 0.33333333
0.3 0.83333333 0.36666667
0.33333333 0.8 0.33333333
0.36666667 0.83333333 0.36666667
0.4 0.8 0.33333333
0.43333333 0.83333333 0.36666667
0.46666667 0.8 0.33333333
0.5 0.83333333 0.36666667
0.53333333 0.8 0.33333333
0.56666667 0.83333333 0.36666667
0.6 0.8 0.33333333
0.63333333 0.83333333 0.36666667
0.66666667 0.8 0.33333333
0.7 0.83333333 0.36666667
0.73333333 0.8 0.33333333
0.76666667 0.83333333 0.36666667
0.8 0.8 0.33333333
0.83333333 0.83333333 0.36666667
0.86666667 0.8 0.33333333
0.9 0.83333333 0.36666667
0.93333333 0.8 0.33333333
0.96666667 0.83333333 0.36666667
-0 0.86666667 0.33333333
0.03333333 0.9 0.36666667
0.06666667 0.86666667 0.33333333
0.1 0.9 0.36666667
0.13333333 0.86666667 0.33333333
0.16666667 0.9 0.36666667
0.2 0.86666667 0.33333333
0.23333333 0.9 0.36666667
0.26666667 0.86666667 0.33333333
0.3 0.9 0.36666667
0.33333333 0.86666667 0.33333333
0.36666667 0.9 0.36666667
0.4 0.86666667 0.33333333
0.43333333 0.9 0.36666667
0.46666667 0.86666667 0.33333333
0.5 0.9 0.36666667
0.53333333 0.86666667 0.33333333
0.56666667 0.9 0.36666667
0.6 0.86666667 0.33333333
0.63333333 0.9 0.36666667
0.66666667 0.86666667 0.33333333
0.7 0.9 0.36666667
0.73333333 0.86666667 0.33333333
0.76666667 0.9 0.36666667
0.8 0.86666667 0.33333333
0.83333333 0.9 0.36666667
0.86666667 0.86666667 0.33333333
0.9 0.9 0.36666667
0.93333333 0.86666667 0.33333333
0.96666667 0.9 0.36666667
-0 0.93333333 0.33333333
0.03333333 0.96666667 0.36666667
0.06666667 0.93333333 0.33333333
0.1 0.96666667 0.36666667
0.13333333 0.93333333 0.33333333
0.16666667 0.96666667 0.36666667
0.2 0.93333333 0.33333333
0.23333333 0.96666667 0.36666667
0.26666667 0.93333333 0.33333333
0.3 0.96666667 0.36666667
0.33333333 0.93333333 0.33333333
0.36666667 0.96666667 0.36666667
0.4 0.93333333 0.33333333
0.43333333 0.96666667 0.36666667
0.46666667 0.93333333 0.33333333
0.5 0.96666667 0.36666667
0.53333333 0.93333333 0.33333333
0.56666667 0.96666667 0.36666667
0.6 0.93333333 0.33333333
0.63333333 0.96666667 0.36666667
0.66666667 0.93333333 0.33333333
0.7 0.96666667 0.36666667
0.73333333 0.93333333 0.33333333
0.76666667 0.96666667 0.36666667
0.8 0.93333333 0.33333333
0.83333333 0.96666667 0.36666667
0.86666667 0.93333333 0.33333333
0.9 0.96666667 0.36666667
0.93333333 0.93333333 0.33333333
0.96666667 0.96666667 0.36666667
-0 -0 0.4
0.03333333 0.03333333 0.43333333
0.06666667 -0 0.4
0.1 0.03333333 0.43333333
0.13333333 -0 0.4
0.16666667 0.03333333 0.43333333
0.2 -0 0.4
0.23333333 0.03333333 0.43333333
0.26666667 -0 0.4
0.3 0.03333333 0.43333333
0.33333333 -0 0.4
0.36666667 0.03333333 0.43333333
0.4 -0 0.4
0.43333333 0.03333333 0.43333333
0.46666667 -0 0.4
0.5 0.03333333 0.43333333
0.53333333 -0 0.4
0.56666667 0.03333333 0.43333333
0.6 -0 0.4
0.63333333 0.03333333 0.43333333
0.66666667 -0 0.4
0.7 0.03333333 0.43333333
0.73333333 -0 0.4
0.76666667 0.03333333 0.43333333
0.8 -0 0.4
0.83333333 0.03333333 0.43333333
0.86666667 -0 0.4
0.9 0.03333333 0.43333333
0.93333333 -0 0.4
0.96666667 0.03333333 0.43333333
-0 0.06666667 0.4
0.03333333 0.1 0.43333333
0.06666667 0.06666667 0.4
0.1 0.1 0.43333333
0.13333333 0.06666667 0.4
0.16666667 0.1 0.43333333
0.2 0.06666667 0.4
0.23333333 0.1 0.43333333
0.26666667 0.06666667 0.4
0.3 0.1 0.43333333
0.33333333 0.06666667 0.4
0.36666667 0.1 0.43333333
0.4 0.06666667 0.4
0.43333333 0.1 0.43333333
0.46666667 0.06666667 0.4
0.5 0.1 0.43333333
0.53333333 0.06666667 0.4
0.56666667 0.1 0.43333333
0.6 0.06666667 0.4
0.63333333 0.1 0.43333333
0.66666667 0.06666667 0.4
0.7 0.1 0.43333333
0.73333333 0.06666667 0.4
0.76666667 0.1 0.43333333
0.8 0.06666667 0.4
0.83333333 0.1 0.43333333
0.86666667 0.06666667 0.4
0.9 0.1 0.43333333
0.93333333 0.06666667 0.4
0.96666667 0.1 0.43333333
-0 0.13333333 0.4
0.03333333 0.16666667 0.43333333
0.06666667 0.13333333 0.4
0.1 0.16666667 0.43333333
0.13333333 0.13333333 0.4
0.16666667 0.16666667 0.43333333
0.2 0.13333333 0.4
0.23333333 0.16666667 0.43333333
0.26666667 0.13333333 0.4
0.3 0.16666667 0.43333333
0.33333333 0.13333333 0.4
0.36666667 0.16666667 0.43333333
0.4 0.13333333 0.4
0.43333333 0.16666667 0.43333333
0.46666667 0.13333333 0.4
0.5 0.16666667 0.43333333
0.53333333 0.13333333 0.4
0.56666667 0.16666667 0.43333333
0.6 0.13333333 0.4
0.63333333 0.16666667 0.43333333
0.66666667 0.13333333 0.4
0.7 0.16666667 0.43333333
0.73333333 0.13333333 0.4
0.76666667 0.16666667 0.43333333
0.8 0.13333333 0.4
0.83333333 0.16666667 0.43333333
0.86666667 0.13333333 0.4
0.9 0.16666667 0.43333333
0.93333333 0.13333333 0.4
0.96666667 0.16666667 0.43333333
-0 0.2 0.4
0.03333333 0.23333333 0.43333333
0.06666667 0.2 0.4
0.1 0.23333333 0.43333333
0.13333333 0.2 0.4
0.16666667 0.23333333 0.43333333
0.2 0.2 0.4
0.23333333 0.23333333 0.43333333
0.26666667 0.2 0.4
0.3 0.23333333 0.43333333
0.33333333 0.2 0.4
0.36666667 0.23333333 0.43333333
0.4 0.2 0.4
0.43333333 0.23333333 0.43333333
0.46666667 0.2 0.4
0.5 0.23333333 0.43333333
0.53333333 0.2 0.4
0.56666667 0.23333333 0.43333333
0.6 0.2 0.4
0.63333333 0.23333333 0.43333333
0.66666667 0.2 0.4
0.7 0.23333333 0.43333333
0.73333333 0.2 0.4
0.76666667 0.23333333 0.43333333
0.8 0.2 0.4
0.83333333 0.23333333 0.43333333
0.86666667 0.2 0.4
0.9 0.23333333 0.43333333
0.93333333 0.2 0.4
0.96666667 0.23333333 0.43333333
-0 0.26666667 0.4
0.03333333 0.3 0.43333333
0.06666667 0.26666667 0.4
0.1 0.3 0.43333333
0.13333333 0.26666667 0.4
0.16666667 0.3 0.43333333
0.2 0.26666667 0.4
0.23333333 0.3 0.43333333
0.26666667 0.26666667 0.4
0.3 0.3 0.43333333
0.33333333 0.26666667 0.4
0.36666667 0.3 0.43333333
0.4 0.26666667 0.4
0.43333333 0.3 0.43333333
0.46666667 0.26666667 0.4
0.5 0.3 0.43333333
0.53333333 0.26666667 0.4
0.56666667 0.3 0.43333333
0.6 0.26666667 0.4
0.63333333 0.3 0.43333333
0.66666667 0.26666667 0.4
0.7 0.3 0.43333333
0.73333333 0.26666667 0.4
0.76666667 0.3 0.43333333
0.8 0.26666667 0.4
0.83333333 0.3 0.43333333
0.86666667 0.26666667 0.4
0.9 0.3 0.43333333
0.93333333 0.26666667 0.4
0.96666667 0.3 0.43333333
-0 0.33333333 0.4
0.03333333 0.36666667 0.43333333
0.06666667 0.33333333 0.4
0.1 0.36666667 0.43333333
0.13333333 0.33333333 0.4
0.16666667 0.36666667 0.43333333
0.2 0.33333333 0.4
0.23333333 0.36666667 0.43333333
0.26666667 0.33333333 0.4
0.3 0.36666667 0.43333333
0.33333333 0.33333333 0.4
0.36666667 0.36666667 0.43333333
0.4 0.33333333 0.4
0.43333333 0.36666667 0.43333333
0.46666667 0.33333333 0.4
0.5 0.36666667 0.43333333
0.53333333 0.33333333 0.4
0.56666667 0.36666667 0.43333333
0.6 0.33333333 0.4
0.63333333 0.36666667 0.43333333
0.66666667 0.33333333 0.4
0.7 0.36666667 0.43333333
0.73333333 0.33333333 0.4
0.76666667 0.36666667 0.43333333
0.8 0.33333333 0.4
0.83333333 0.36666667 0.43333333
0.86666667 0.33333333 0.4
0.9 0.36666667 0.43333333
0.93333333 0.33333333 0.4
0.96666667 0.36666667 0.43333333
-0 0.4 0.4
0.03333333 0.43333333 0.43333333
0.06666667 0.4 0.4
0.1 0.43333333 0.43333333
0.13333333 0.4 0.4
0.16666667 0.43333333 0.43333333
0.2 0.4 0.4
0.23333333 0.43333333 0.43333333
0.26666667 0.4 0.4
0.3 0.43333333 0.43333333
0.33333333 0.4 0.4
0.36666667 0.43333333 0.43333333
0.4 0.4 0.4
0.43333333 0.43333333 0.43333333
0.46666667 0.4 0.4
0.5 0.43333333 0.43333333
0.53333333 0.4 0.4
0.56666667 0.43333333 0.43333333
0.6 0.4 0.4
0.63333333 0.43333333 0.43333333
0.66666667 0.4 0.4
0.7 0.43333333 0.43333333
0.73333333 0.4 0.4
0.76666667 0.43333333 0.43333333
0.8 0.4 0.4
0.83333333 0.43333333 0.43333333
0.86666667 0.4 0.4
0.9 0.43333333 0.43333333
0.93333333 0.4 0.4
0.96666667 0.43333333 0.43333333
-0 0.46666667 0.4
0.03333333 0.5 0.43333333
0.06666667 0.46666667 0.4
0.1 0.5 0.43333333
0.13333333 0.46666667 0.4
0.16666667 0.5 0.43333333
0.2 0.46666667 0.4
0.23333333 0.5 0.43333333
0.26666667 0.46666667 0.4
0.3 0.5 0.43333333
0.33333333 0.46666667 0.4
0.36666667 0.5 0.43333333
0.4 0.46666667 0.4
0.43333333 0.5 0.43333333
0.46666667 0.46666667 0.4
0.5 0.5 0.43333333
0.53333333 0.46666667 0.4
0.56666667 0.5 0.43333333
0.6 0.46666667 0.4
0.63333333 0.5 0.43333333
0.66666667 0.46666667 0.4
0.7 0.5 0.43333333
0.73333333 0.46666667 0.4
0.76666667 0.5 0.43333333
0.8 0.46666667 0.4
0.83333333 0.5 0.43333333
0.86666667 0.46666667 0.4
0.9 0.5 0.43333333
0.93333333 0.46666667 0.4
0.96666667 0.5 0.43333333
-0 0.53333333 0.4
0.03333333 0.56666667 0.43333333
0.06666667 0.53333333 0.4
0.1 0.56666667 0.43333333
0.13333333 0.53333333 0.4
0.16666667 0.56666667 0.43333333
0.2 0.53333333 0.4
0.23333333 0.56666667 0.43333333
0.26666667 0.53333333 0.4
0.3 0.56666667 0.43333333
0.33333333 0.53333333 0.4
0.36666667 0.56666667 0.43333333
0.4 0.53333333 0.4
0.43333333 0.56666667 0.43333333
0.46666667 0.53333333 0.4
0.5 0.56666667 0.43333333
0.53333333 0.53333333 0.4
0.56666667 0.56666667 0.43333333
0.6 0.53333333 0.4
0.63333333 0.56666667 0.43333333
0.66666667 0.53333333 0.4
0.7 0.56666667 0.43333333
0.73333333 0.53333333 0.4
0.76666667 0.56666667 0.43333333
0.8 0.53333333 0.4
0.83333333 0.56666667 0.43333333
0.86666667 0.53333333 0.4
0.9 0.56666667 0.43333333
0.93333333 0.53333333 0.4
0.96666667 0.56666667 0.43333333
-0 0.6 0.4
0.03333333 0.63333333 0.43333333
0.06666667 0.6 0.4
0.1 0.63333333 0.43333333
0.13333333 0.6 0.4
0.16666667 0.63333333 0.43333333
0.2 0.6 0.4
0.23333333 0.63333333 0.43333333
0.26666667 0.6 0.4
0.3 0.63333333 0.43333333
0.33333333 0.6 0.4
0.36666667 0.63333333 0.43333333
0.4 0.6 0.4
0.43333333 0.63333333 0.43333333
0.46666667 0.6 0.4
0.5 0.63333333 0.43333333
0.53333333 0.6 0.4
0.56666667 0.63333333 0.43333333
0.6 0.6 0.4
0.63333333 0.63333333 0.43333333
0.66666667 0.6 0.4
0.7 0.63333333 0.43333333
0.73333333 0.6 0.4
0.76666667 0.63333333 0.43333333
0.8 0.6 0.4
0.83333333 0.63333333 0.43333333
0.86666667 0.6 0.4
0.9 0.63333333 0.43333333
0.93333333 0.6 0.4
0.96666667 0.63333333 0.43333333
-0 0.66666667 0.4
0.03333333 0.7 0.43333333
0.06666667 0.66666667 0.4
0.1 0.7 0.43333333
0.13333333 0.66666667 0.4
0.16666667 0.7 0.43333333
0.2 0.66666667 0.4
0.23333333 0.7 0.43333333
0.26666667 0.66666667 0.4
0.3 0.7 0.43333333
0.33333333 0.66666667 0.4
0.36666667 0.7 0.43333333
0.4 0.66666667 0.4
0.43333333 0.7 0.43333333
0.46666667 0.66666667 0.4
0.5 0.7 0.43333333
0.53333333 0.66666667 0.4
0.56666667 0.7 0.43333333
0.6 0.66666667 0.4
0.63333333 0.7 0.43333333
0.66666667 0.66666667 0.4
0.7 0.7 0.43333333
0.73333333 0.66666667 0.4
0.76666667 0.7 0.43333333
0.8 0.66666667 0.4
0.83333333 0.7 0.43333333
0.86666667 0.66666667 0.4
0.9 0.7 0.43333333
0.93333333 0.66666667 0.4
0.96666667 0.7 0.43333333
-0 0.73333333 0.4
0.03333333 0.76666667 0.43333333
0.06666667 0.73333333 0.4
0.1 0.76666667 0.43333333
0.13333333 0.73333333 0.4
0.16666667 0.76666667 0.43333333
0.2 0.73333333 0.4
0.23333333 0.76666667 0.43333333
0.26666667 0.73333333 0.4
0.3 0.76666667 0.43333333
0.33333333 0.73333333 0.4
0.36666667 0.76666667 0.43333333
0.4 0.73333333 0.4
0.43333333 0.76666667 0.43333333
0.46666667 0.73333333 0.4
0.5 0.76666667 0.43333333
0.53333333 0.73333333 0.4
0.56666667 0.76666667 0.43333333
0.6 0.73333333 0.4
0.63333333 0.76666667 0.43333333
0.66666667 0.73333333 0.4
0.7 0.76666667 0.43333333
0.73333333 0.73333333 0.4
0.76666667 0.76666667 0.43333333
0.8 0.73333333 0.4
0.83333333 0.76666667 0.43333333
0.86666667 0.73333333 0.4
0.9 0.76666667 0.43333333
0.93333333 0.73333333 0.4
0.96666667 0.76666667 0.43333333
-0 0.8 0.4
0.03333333 0.83333333 0.43333333
0.06666667 0.8 0.4
0.1 0.83333333 0.43333333
0.13333333 0.8 0.4
0.16666667 0.83333333 0.43333333
0.2 0.8 0.4
0.23333333 0.83333333 0.43333333
0.26666667 0.8 0.4
0.3 0.83333333 0.43333333
0.33333333 0.8 0.4
0.36666667 0.83333333 0.43333333
0.4 0.8 0.4
0.43333333 0.83333333 0.43333333
0.46666667 0.8 0.4
0.5 0.83333333 0.43333333
0.53333333 0.8 0.4
0.56666667 0.83333333 0.43333333
0.6 0.8 0.4
0.63333333 0.83333333 0.43333333
0.66666667 0.8 0.4
0.7 0.83333333 0.43333333
0.73333333 0.8 0.4
0.76666667 0.83333333 0.43333333
0.8 0.8 0.4
0.83333333 0.83333333 0.43333333
0.86666667 0.8 0.4
0.9 0.83333333 0.43333333
0.93333333 0.8 0.4
0.96666667 0.83333333 0.43333333
-0 0.86666667 0.4
0.03333333 0.9 0.43333333
0.06666667 0.86666667 0.4
0.1 0.9 0.43333333
0.13333333 0.86666667 0.4
0.16666667 0.9 0.43333333
0.2 0.86666667 0.4
0.23333333 0.9 0.43333333
0.26666667 0.86666667 0.4
0.3 0.9 0.43333333
0.33333333 0.86666667 0.4
0.36666667 0.9 0.43333333
0.4 0.86666667 0.4
0.43333333 0.9 0.43333333
0.46666667 0.86666667 0.4
0.5 0.9 0.43333333
0.53333333 0.86666667 0.4
0.56666667 0.9 0.43333333
0.6 0.86666667 0.4
0.63333333 0.9 0.43333333
0.66666667 0.86666667 0.4
0.7 0.9 0.43333333
0.73333333 0.86666667 0.4
0.76666667 0.9 0.43333333
0.8 0.86666667 0.4
0.83333333 0.9 0.43333333
0.86666667 0.86666667 0.4
0.9 0.9 0.43333333
0.93333333 0.86666667 0.4
0.96666667 0.9 0.43333333
-0 0.93333333 0.4
0.03333333 0.96666667 0.43333333
0.06666667 0.93333333 0.4
0.1 0.96666667 0.43333333
0.13333333 0.93333333 0.4
0.16666667 0.96666667 0.43333333
0.2 0.93333333 0.4
0.23333333 0.96666667 0.43333333
0.26666667 0.93333333 0.4
0.3 0.96666667 0.43333333
0.33333333 0.93333333 0.4
0.36666667 0.96666667 0.43333333
0.4 0.93333333 0.4
0.43333333 0.96666667 0.43333333
0.46666667 0.93333333 0.4
0.5 0.96666667 0.43333333
0.53333333 0.93333333 0.4
0.56666667 0.96666667 0.43333333
0.6 0.93333333 0.4
0.63333333 0.96666667 0.43333333
0.66666667 0.93333333 0.4
0.7 0.96666667 0.43333333
0.73333333 0.93333333 0.4
0.76666667 0.96666667 0.43333333
0.8 0.93333333 0.4
0.83333333 0.96666667 0.43333333
0.86666667 0.93333333 0.4
0.9 0.96666667 0.43333333
0.93333333 0.93333333 0.4
0.96666667 0.96666667 0.43333333
-0 -0 0.46666667
0.03333333 0.03333333 0.5
0.06666667 -0 0.46666667
0.1 0.03333333 0.5
0.13333333 -0 0.46666667
0.16666667 0.03333333 0.5
0.2 -0 0.46666667
0.23333333 0.03333333 0.5
0.26666667 -0 0.46666667
0.3 0.03333333 0.5
0.33333333 -0 0.46666667
0.36666667 0.03333333 0.5
0.4 -0 0.46666667
0.43333333 0.03333333 0.5
0.46666667 -0 0.46666667
0.5 0.03333333 0.5
0.53333333 -0 0.46666667
0.56666667 0.03333333 0.5
0.6 -0 0.46666667
0.63333333 0.03333333 0.5
0.66666667 -0 0.46666667
0.7 0.03333333 0.5
0.73333333 -0 0.46666667
0.76666667 0.03333333 0.5
0.8 -0 0.46666667
0.83333333 0.03333333 0.5
0.86666667 -0 0.46666667
0.9 0.03333333 0.5
0.93333333 -0 0.46666667
0.96666667 0.03333333 0.5
-0 0.06666667 0.46666667
0.03333333 0.1 0.5
0.06666667 0.06666667 0.46666667
0.1 0.1 0.5
0.13333333 0.06666667 0.46666667
0.16666667 0.1 0.5
0.2 0.06666667 0.46666667
0.23333333 0.1 0.5
0.26666667 0.06666667 0.46666667
0.3 0.1 0.5
0.33333333 0.06666667 0.46666667
0.36666667 0.1 0.5
0.4 0.06666667 0.46666667
0.43333333 0.1 0.5
0.46666667 0.06666667 0.46666667
0.5 0.1 0.5
0.53333333 0.06666667 0.46666667
0.56666667 0.1 0.5
0.6 0.06666667 0.46666667
0.63333333 0.1 0.5
0.66666667 0.06666667 0.46666667
0.7 0.1 0.5
0.73333333 0.06666667 0.46666667
0.76666667 0.1 0.5
0.8 0.06666667 0.46666667
0.83333333 0.1 0.5
0.86666667 0.06666667 0.46666667
0.9 0.1 0.5
0.93333333 0.06666667 0.46666667
0.96666667 0.1 0.5
-0 0.13333333 0.46666667
0.03333333 0.16666667 0.5
0.06666667 0.13333333 0.46666667
0.1 0.16666667 0.5
0.13333333 0.13333333 0.46666667
0.16666667 0.16666667 0.5
0.2 0.13333333 0.46666667
0.23333333 0.16666667 0.5
0.26666667 0.13333333 0.46666667
0.3 0.16666667 0.5
0.33333333 0.13333333 0.46666667
0.36666667 0.16666667 0.5
0.4 0.13333333 0.46666667
0.43333333 0.16666667 0.5
0.46666667 0.13333333 0.46666667
0.5 0.16666667 0.5
0.53333333 0.13333333 0.46666667
0.56666667 0.16666667 0.5
0.6 0.13333333 0.46666667
0.63333333 0.16666667 0.5
0.66666667 0.13333333 0.46666667
0.7 0.16666667 0.5
0.73333333 0.13333333 0.46666667
0.76666667 0.16666667 0.5
0.8 0.13333333 0.46666667
0.83333333 0.16666667 0.5
0.86666667 0.13333333 0.46666667
0.9 0.16666667 0.5
0.93333333 0.13333333 0.46666667
0.96666667 0.16666667 0.5
-0 0.2 0.46666667
0.03333333 0.23333333 0.5
0.06666667 0.2 0.46666667
0.1 0.23333333 0.5
0.13333333 0.2 0.46666667
0.16666667 0.23333333 0.5
0.2 0.2 0.46666667
0.23333333 0.23333333 0.5
0.26666667 0.2 0.46666667
0.3 0.23333333 0.5
0.33333333 0.2 0.46666667
0.36666667 0.23333333 0.5
0.4 0.2 0.46666667
0.43333333 0.23333333 0.5
0.46666667 0.2 0.46666667
0.5 0.23333333 0.5
0.53333333 0.2 0.46666667
0.56666667 0.23333333 0.5
0.6 0.2 0.46666667
0.63333333 0.23333333 0.5
0.66666667 0.2 0.46666667
0.7 0.23333333 0.5
0.73333333 0.2 0.46666667
0.76666667 0.23333333 0.5
0.8 0.2 0.46666667
0.83333333 0.23333333 0.5
0.86666667 0.2 0.46666667
0.9 0.23333333 0.5
0.93333333 0.2 0.46666667
0.96666667 0.23333333 0.5
-0 0.26666667 0.46666667
0.03333333 0.3 0.5
0.06666667 0.26666667 0.46666667
0.1 0.3 0.5
0.13333333 0.26666667 0.46666667
0.16666667 0.3 0.5
0.2 0.26666667 0.46666667
0.23333333 0.3 0.5
0.26666667 0.26666667 0.46666667
0.3 0.3 0.5
0.33333333 0.26666667 0.46666667
0.36666667 0.3 0.5
0.4 0.26666667 0.46666667
0.43333333 0.3 0.5
0.46666667 0.26666667 0.46666667
0.5 0.3 0.5
0.53333333 0.26666667 0.46666667
0.56666667 0.3 0.5
0.6 0.26666667 0.46666667
0.63333333 0.3 0.5
0.66666667 0.26666667 0.46666667
0.7 0.3 0.5
0.73333333 0.26666667 0.46666667
0.76666667 0.3 0.5
0.8 0.26666667 0.46666667
0.83333333 0.3 0.5
0.86666667 0.26666667 0.46666667
0.9 0.3 0.5
0.93333333 0.26666667 0.46666667
0.96666667 0.3 0.5
-0 0.33333333 0.46666667
0.03333333 0.36666667 0.5
0.06666667 0.33333333 0.46666667
0.1 0.36666667 0.5
0.13333333 0.33333333 0.46666667
0.16666667 0.36666667 0.5
0.2 0.33333333 0.46666667
0.23333333 0.36666667 0.5
0.26666667 0.33333333 0.46666667
0.3 0.36666667 0.5
0.33333333 0.33333333 0.46666667
0.36666667 0.36666667 0.5
0.4 0.33333333 0.46666667
0.43333333 0.36666667 0.5
0.46666667 0.33333333 0.46666667
0.5 0.36666667 0.5
0.53333333 0.33333333 0.46666667
0.56666667 0.36666667 0.5
0.6 0.33333333 0.46666667
0.63333333 0.36666667 0.5
0.66666667 0.33333333 0.46666667
0.7 0.36666667 0.5
0.73333333 0.33333333 0.46666667
0.76666667 0.36666667 0.5
0.8 0.33333333 0.46666667
0.83333333 0.36666667 0.5
0.86666667 0.33333333 0.46666667
0.9 0.36666667 0.5
0.93333333 0.33333333 0.46666667
0.96666667 0.36666667 0.5
-0 0.4 0.46666667
0.03333333 0.43333333 0.5
0.06666667 0.4 0.46666667
0.1 0.43333333 0.5
0.13333333 0.4 0.46666667
0.16666667 0.43333333 0.5
0.2 0.4 0.46666667
0.23333333 0.43333333 0.5
0.26666667 0.4 0.46666667
0.3 0.43333333 0.5
0.33333333 0.4 0.46666667
0.36666667 0.43333333 0.5
0.4 0.4 0.46666667
0.43333333 0.43333333 0.5
0.46666667 0.4 0.46666667
0.5 0.43333333 0.5
0.53333333 0.4 0.46666667
0.56666667 0.43333333 0.5
0.6 0.4 0.46666667
0.63333333 0.43333333 0.5
0.66666667 0.4 0.46666667
0.7 0.43333333 0.5
0.73333333 0.4 0.46666667
0.76666667 0.43333333 0.5
0.8 0.4 0.46666667
0.83333333 0.43333333 0.5
0.86666667 0.4 0.46666667
0.9 0.43333333 0.5
0.93333333 0.4 0.46666667
0.96666667 0.43333333 0.5
-0 0.46666667 0.46666667
0.03333333 0.5 0.5
0.06666667 0.46666667 0.46666667
0.1 0.5 0.5
0.13333333 0.46666667 0.46666667
0.16666667 0.5 0.5
0.2 0.46666667 0.46666667
0.23333333 0.5 0.5
0.26666667 0.46666667 0.46666667
0.3 0.5 0.5
0.33333333 0.46666667 0.46666667
0.36666667 0.5 0.5
0.4 0.46666667 0.46666667
0.43333333 0.5 0.5
0.46666667 0.46666667 0.46666667
0.5 0.5 0.5
0.53333333 0.46666667 0.46666667
0.56666667 0.5 0.5
0.6 0.46666667 0.46666667
0.63333333 0.5 0.5
0.66666667 0.46666667 0.46666667
0.7 0.5 0.5
0.73333333 0.46666667 0.46666667
0.76666667 0.5 0.5
0.8 0.46666667 0.46666667
0.83333333 0.5 0.5
0.86666667 0.46666667 0.46666667
0.9 0.5 0.5
0.93333333 0.46666667 0.46666667
0.96666667 0.5 0.5
-0 0.53333333 0.46666667
0.03333333 0.56666667 0.5
0.06666667 0.53333333 0.46666667
0.1 0.56666667 0.5
0.13333333 0.53333333 0.46666667
0.16666667 0.56666667 0.5
0.2 0.53333333 0.46666667
0.23333333 0.56666667 0.5
0.26666667 0.53333333 0.46666667
0.3 0.56666667 0.5
0.33333333 0.53333333 0.46666667
0.36666667 0.56666667 0.5
0.4 0.53333333 0.46666667
0.43333333 0.56666667 0.5
0.46666667 0.53333333 0.46666667
0.5 0.56666667 0.5
0.53333333 0.53333333 0.46666667
0.56666667 0.56666667 0.5
0.6 0.53333333 0.46666667
0.63333333 0.56666667 0.5
0.66666667 0.53333333 0.46666667
0.7 0.56666667 0.5
0.73333333 0.53333333 0.46666667
0.76666667 0.56666667 0.5
0.8 0.53333333 0.46666667
0.83333333 0.56666667 0.5
0.86666667 0.53333333 0.46666667
0.9 0.56666667 0.5
0.93333333 0.53333333 0.46666667
0.96666667 0.56666667 0.5
-0 0.6 0.46666667
0.03333333 0.63333333 0.5
0.06666667 0.6 0.46666667
0.1 0.63333333 0.5
0.13333333 0.6 0.46666667
0.16666667 0.63333333 0.5
0.2 0.6 0.46666667
0.23333333 0.63333333 0.5
0.26666667 0.6 0.46666667
0.3 0.63333333 0.5
0.33333333 0.6 0.46666667
0.36666667 0.63333333 0.5
0.4 0.6 0.46666667
0.43333333 0.63333333 0.5
0.46666667 0.6 0.46666667
0.5 0.63333333 0.5
0.53333333 0.6 0.46666667
0.56666667 0.63333333 0.5
0.6 0.6 0.46666667
0.63333333 0.63333333 0.5
0.66666667 0.6 0.46666667
0.7 0.63333333 0.5
0.73333333 0.6 0.46666667
0.76666667 0.63333333 0.5
0.8 0.6 0.46666667
0.83333333 0.63333333 0.5
0.86666667 0.6 0.46666667
0.9 0.63333333 0.5
0.93333333 0.6 0.46666667
0.96666667 0.63333333 0.5
-0 0.66666667 0.46666667
0.03333333 0.7 0.5
0.06666667 0.66666667 0.46666667
0.1 0.7 0.5
0.13333333 0.66666667 0.46666667
0.16666667 0.7 0.5
0.2 0.66666667 0.46666667
0.23333333 0.7 0.5
0.26666667 0.66666667 0.46666667
0.3 0.7 0.5
0.33333333 0.66666667 0.46666667
0.36666667 0.7 0.5
0.4 0.66666667 0.46666667
0.43333333 0.7 0.5
0.46666667 0.66666667 0.46666667
0.5 0.7 0.5
0.53333333 0.66666667 0.46666667
0.56666667 0.7 0.5
0.6 0.66666667 0.46666667
0.63333333 0.7 0.5
0.66666667 0.66666667 0.46666667
0.7 0.7 0.5
0.73333333 0.66666667 0.46666667
0.76666667 0.7 0.5
0.8 0.66666667 0.46666667
0.83333333 0.7 0.5
0.86666667 0.66666667 0.46666667
0.9 0.7 0.5
0.93333333 0.66666667 0.46666667
0.96666667 0.7 0.5
-0 0.73333333 0.46666667
0.03333333 0.76666667 0.5
0.06666667 0.73333333 0.46666667
0.1 0.76666667 0.5
0.13333333 0.73333333 0.46666667
0.16666667 0.76666667 0.5
0.2 0.73333333 0.46666667
0.23333333 0.76666667 0.5
0.26666667 0.73333333 0.46666667
0.3 0.76666667 0.5
0.33333333 0.73333333 0.46666667
0.36666667 0.76666667 0.5
0.4 0.73333333 0.46666667
0.43333333 0.76666667 0.5
0.46666667 0.73333333 0.46666667
0.5 0.76666667 0.5
0.53333333 0.73333333 0.46666667
0.56666667 0.76666667 0.5
0.6 0.73333333 0.46666667
0.63333333 0.76666667 0.5
0.66666667 0.73333333 0.46666667
0.7 0.76666667 0.5
0.73333333 0.73333333 0.46666667
0.76666667 0.76666667 0.5
0.8 0.73333333 0.46666667
0.83333333 0.76666667 0.5
0.86666667 0.73333333 0.46666667
0.9 0.76666667 0.5
0.93333333 0.73333333 0.46666667
0.96666667 0.76666667 0.5
-0 0.8 0.46666667
0.03333333 0.83333333 0.5
0.06666667 0.8 0.46666667
0.1 0.83333333 0.5
0.13333333 0.8 0.46666667
0.16666667 0.83333333 0.5
0.2 0.8 0.46666667
0.23333333 0.83333333 0.5
0.26666667 0.8 0.46666667
0.3 0.83333333 0.5
0.33333333 0.8 0.46666667
0.36666667 0.83333333 0.5
0.4 0.8 0.46666667
0.43333333 0.83333333 0.5
0.46666667 0.8 0.46666667
0.5 0.83333333 0.5
0.53333333 0.8 0.46666667
0.56666667 0.83333333 0.5
0.6 0.8 0.46666667
0.63333333 0.83333333 0.5
0.66666667 0.8 0.46666667
0.7 0.83333333 0.5
0.73333333 0.8 0.46666667
0.76666667 0.83333333 0.5
0.8 0.8 0.46666667
0.83333333 0.83333333 0.5
0.86666667 0.8 0.46666667
0.9 0.83333333 0.5
0.93333333 0.8 0.46666667
0.96666667 0.83333333 0.5
-0 0.86666667 0.46666667
0.03333333 0.9 0.5
0.06666667 0.86666667 0.46666667
0.1 0.9 0.5
0.13333333 0.86666667 0.46666667
0.16666667 0.9 0.5
0.2 0.86666667 0.46666667
0.23333333 0.9 0.5
0.26666667 0.86666667 0.46666667
0.3 0.9 0.5
0.33333333 0.86666667 0.46666667
0.36666667 0.9 0.5
0.4 0.86666667 0.46666667
0.43333333 0.9 0.5
0.46666667 0.86666667 0.46666667
0.5 0.9 0.5
0.53333333 0.86666667 0.46666667
0.56666667 0.9 0.5
0.6 0.86666667 0.46666667
0.63333333 0.9 0.5
0.66666667 0.86666667 0.46666667
0.7 0.9 0.5
0.73333333 0.86666667 0.46666667
0.76666667 0.9 0.5
0.8 0.86666667 0.46666667
0.83333333 0.9 0.5
0.86666667 0.86666667 0.46666667
0.9 0.9 0.5
0.93333333 0.86666667 0.46666667
0.96666667 0.9 0.5
-0 0.93333333 0.46666667
0.03333333 0.96666667 0.5
0.06666667 0.93333333 0.46666667
0.1 0.96666667 0.5
0.13333333 0.93333333 0.46666667
0.16666667 0.96666667 0.5
0.2 0.93333333 0.46666667
0.23333333 0.96666667 0.5
0.26666667 0.93333333 0.46666667
0.3 0.96666667 0.5
0.33333333 0.93333333 0.46666667
0.36666667 0.96666667 0.5
0.4 0.93333333 0.46666667
0.43333333 0.96666667 0.5
0.46666667 0.93333333 0.46666667
0.5 0.96666667 0.5
0.53333333 0.93333333 0.46666667
0.56666667 0.96666667 0.5
0.6 0.93333333 0.46666667
0.63333333 0.96666667 0.5
0.66666667 0.93333333 0.46666667
0.7 0.96666667 0.5
0.73333333 0.93333333 0.46666667
0.76666667 0.96666667 0.5
0.8 0.93333333 0.46666667
0.83333333 0.96666667 0.5
0.86666667 0.93333333 0.46666667
0.9 0.96666667 0.5
0.93333333 0.93333333 0.46666667
0.96666667 0.96666667 0.5
-0 -0 0.53333333
0.03333333 0.03333333 0.56666667
0.06666667 -0 0.53333333
0.1 0.03333333 0.56666667
0.13333333 -0 0.53333333
0.16666667 0.03333333 0.56666667
0.2 -0 0.53333333
0.23333333 0.03333333 0.56666667
0.26666667 -0 0.53333333
0.3 0.03333333 0.56666667
0.33333333 -0 0.53333333
0.36666667 0.03333333 0.56666667
0.4 -0 0.53333333
0.43333333 0.03333333 0.56666667
0.46666667 -0 0.53333333
0.5 0.03333333 0.56666667
0.53333333 -0 0.53333333
0.56666667 0.03333333 0.56666667
0.6 -0 0.53333333
0.63333333 0.03333333 0.56666667
0.66666667 -0 0.53333333
0.7 0.03333333 0.56666667
0.73333333 -0 0.53333333
0.76666667 0.03333333 0.56666667
0.8 -0 0.53333333
0.83333333 0.03333333 0.56666667
0.86666667 -0 0.53333333
0.9 0.03333333 0.56666667
0.93333333 -0 0.53333333
0.96666667 0.03333333 0.56666667
-0 0.06666667 0.53333333
0.03333333 0.1 0.56666667
0.06666667 0.06666667 0.53333333
0.1 0.1 0.56666667
0.13333333 0.06666667 0.53333333
0.16666667 0.1 0.56666667
0.2 0.06666667 0.53333333
0.23333333 0.1 0.56666667
0.26666667 0.06666667 0.53333333
0.3 0.1 0.56666667
0.33333333 0.06666667 0.53333333
0.36666667 0.1 0.56666667
0.4 0.06666667 0.53333333
0.43333333 0.1 0.56666667
0.46666667 0.06666667 0.53333333
0.5 0.1 0.56666667
0.53333333 0.06666667 0.53333333
0.56666667 0.1 0.56666667
0.6 0.06666667 0.53333333
0.63333333 0.1 0.56666667
0.66666667 0.06666667 0.53333333
0.7 0.1 0.56666667
0.73333333 0.06666667 0.53333333
0.76666667 0.1 0.56666667
0.8 0.06666667 0.53333333
0.83333333 0.1 0.56666667
0.86666667 0.06666667 0.53333333
0.9 0.1 0.56666667
0.93333333 0.06666667 0.53333333
0.96666667 0.1 0.56666667
-0 0.13333333 0.53333333
0.03333333 0.16666667 0.56666667
0.06666667 0.13333333 0.53333333
0.1 0.16666667 0.56666667
0.13333333 0.13333333 0.53333333
0.16666667 0.16666667 0.56666667
0.2 0.13333333 0.53333333
0.23333333 0.16666667 0.56666667
0.26666667 0.13333333 0.53333333
0.3 0.16666667 0.56666667
0.33333333 0.13333333 0.53333333
0.36666667 0.16666667 0.56666667
0.4 0.13333333 0.53333333
0.43333333 0.16666667 0.56666667
0.46666667 0.13333333 0.53333333
0.5 0.16666667 0.56666667
0.53333333 0.13333333 0.53333333
0.56666667 0.16666667 0.56666667
0.6 0.13333333 0.53333333
0.63333333 0.16666667 0.56666667
0.66666667 0.13333333 0.53333333
0.7 0.16666667 0.56666667
0.73333333 0.13333333 0.53333333
0.76666667 0.16666667 0.56666667
0.8 0.13333333 0.53333333
0.83333333 0.16666667 0.56666667
0.86666667 0.13333333 0.53333333
0.9 0.16666667 0.56666667
0.93333333 0.13333333 0.53333333
0.96666667 0.16666667 0.56666667
-0 0.2 0.53333333
0.03333333 0.23333333 0.56666667
0.06666667 0.2 0.53333333
0.1 0.23333333 0.56666667
0.13333333 0.2 0.53333333
0.16666667 0.23333333 0.56666667
0.2 0.2 0.53333333
0.23333333 0.23333333 0.56666667
0.26666667 0.2 0.53333333
0.3 0.23333333 0.56666667
0.33333333 0.2 0.53333333
0.36666667 0.23333333 0.56666667
0.4 0.2 0.53333333
0.43333333 0.23333333 0.56666667
0.46666667 0.2 0.53333333
0.5 0.23333333 0.56666667
0.53333333 0.2 0.53333333
0.56666667 0.23333333 0.56666667
0.6 0.2 0.53333333
0.63333333 0.23333333 0.56666667
0.66666667 0.2 0.53333333
0.7 0.23333333 0.56666667
0.73333333 0.2 0.53333333
0.76666667 0.23333333 0.56666667
0.8 0.2 0.53333333
0.83333333 0.23333333 0.56666667
0.86666667 0.2 0.53333333
0.9 0.23333333 0.56666667
0.93333333 0.2 0.53333333
0.96666667 0.23333333 0.56666667
-0 0.26666667 0.53333333
0.03333333 0.3 0.56666667
0.06666667 0.26666667 0.53333333
0.1 0.3 0.56666667
0.13333333 0.26666667 0.53333333
0.16666667 0.3 0.56666667
0.2 0.26666667 0.53333333
0.23333333 0.3 0.56666667
0.26666667 0.26666667 0.53333333
0.3 0.3 0.56666667
0.33333333 0.26666667 0.53333333
0.36666667 0.3 0.56666667
0.4 0.26666667 0.53333333
0.43333333 0.3 0.56666667
0.46666667 0.26666667 0.53333333
0.5 0.3 0.56666667
0.53333333 0.26666667 0.53333333
0.56666667 0.3 0.56666667
0.6 0.26666667 0.53333333
0.63333333 0.3 0.56666667
0.66666667 0.26666667 0.53333333
0.7 0.3 0.56666667
0.73333333 0.26666667 0.53333333
0.76666667 0.3 0.56666667
0.8 0.26666667 0.53333333
0.83333333 0.3 0.56666667
0.86666667 0.26666667 0.53333333
0.9 0.3 0.56666667
0.93333333 0.26666667 0.53333333
0.96666667 0.3 0.56666667
-0 0.33333333 0.53333333
0.03333333 0.36666667 0.56666667
0.06666667 0.33333333 0.53333333
0.1 0.36666667 0.56666667
0.13333333 0.33333333 0.53333333
0.16666667 0.36666667 0.56666667
0.2 0.33333333 0.53333333
0.23333333 0.36666667 0.56666667
0.26666667 0.33333333 0.53333333
0.3 0.36666667 0.56666667
0.33333333 0.33333333 0.53333333
0.36666667 0.36666667 0.56666667
0.4 0.33333333 0.53333333
0.43333333 0.36666667 0.56666667
0.46666667 0.33333333 0.53333333
0.5 0.36666667 0.56666667
0.53333333 0.33333333 0.53333333
0.56666667 0.36666667 0.56666667
0.6 0.33333333 0.53333333
0.63333333 0.36666667 0.56666667
0.66666667 0.33333333 0.53333333
0.7 0.36666667 0.56666667
0.73333333 0.33333333 0.53333333
0.76666667 0.36666667 0.56666667
0.8 0.33333333 0.53333333
0.83333333 0.36666667 0.56666667
0.86666667 0.33333333 0.53333333
0.9 0.36666667 0.56666667
0.93333333 0.33333333 0.53333333
0.96666667 0.36666667 0.56666667
-0 0.4 0.53333333
0.03333333 0.43333333 0.56666667
0.06666667 0.4 0.53333333
0.1 0.43333333 0.56666667
0.13333333 0.4 0.53333333
0.16666667 0.43333333 0.56666667
0.2 0.4 0.53333333
0.23333333 0.43333333 0.56666667
0.26666667 0.4 0.53333333
0.3 0.43333333 0.56666667
0.33333333 0.4 0.53333333
0.36666667 0.43333333 0.56666667
0.4 0.4 0.53333333
0.43333333 0.43333333 0.56666667
0.46666667 0.4 0.53333333
0.5 0.43333333 0.56666667
0.53333333 0.4 0.53333333
0.56666667 0.43333333 0.56666667
0.6 0.4 0.53333333
0.63333333 0.43333333 0.56666667
0.66666667 0.4 0.53333333
0.7 0.43333333 0.56666667
0.73333333 0.4 0.53333333
0.76666667 0.43333333 0.56666667
0.8 0.4 0.53333333
0.83333333 0.43333333 0.56666667
0.86666667 0.4 0.53333333
0.9 0.43333333 0.56666667
0.93333333 0.4 0.53333333
0.96666667 0.43333333 0.56666667
-0 0.46666667 0.53333333
0.03333333 0.5 0.56666667
0.06666667 0.46666667 0.53333333
0.1 0.5 0.56666667
0.13333333 0.46666667 0.53333333
0.16666667 0.5 0.56666667
0.2 0.46666667 0.53333333
0.23333333 0.5 0.56666667
0.26666667 0.46666667 0.53333333
0.3 0.5 0.56666667
0.33333333 0.46666667 0.53333333
0.36666667 0.5 0.56666667
0.4 0.46666667 0.53333333
0.43333333 0.5 0.56666667
0.46666667 0.46666667 0.53333333
0.5 0.5 0.56666667
0.53333333 0.46666667 0.53333333
0.56666667 0.5 0.56666667
0.6 0.46666667 0.53333333
0.63333333 0.5 0.56666667
0.66666667 0.46666667 0.53333333
0.7 0.5 0.56666667
0.73333333 0.46666667 0.53333333
0.76666667 0.5 0.56666667
0.8 0.46666667 0.53333333
0.83333333 0.5 0.56666667
0.86666667 0.46666667 0.53333333
0.9 0.5 0.56666667
0.93333333 0.46666667 0.53333333
0.96666667 0.5 0.56666667
-0 0.53333333 0.53333333
0.03333333 0.56666667 0.56666667
0.06666667 0.53333333 0.53333333
0.1 0.56666667 0.56666667
0.13333333 0.53333333 0.53333333
0.16666667 0.56666667 0.56666667
0.2 0.53333333 0.53333333
0.23333333 0.56666667 0.56666667
0.26666667 0.53333333 0.53333333
0.3 0.56666667 0.56666667
0.33333333 0.53333333 0.53333333
0.36666667 0.56666667 0.56666667
0.4 0.53333333 0.53333333
0.43333333 0.56666667 0.56666667
0.46666667 0.53333333 0.53333333
0.5 0.56666667 0.56666667
0.53333333 0.53333333 0.53333333
0.56666667 0.56666667 0.56666667
0.6 0.53333333 0.53333333
0.63333333 0.56666667 0.56666667
0.66666667 0.53333333 0.53333333
0.7 0.56666667 0.56666667
0.73333333 0.53333333 0.53333333
0.76666667 0.56666667 0.56666667
0.8 0.53333333 0.53333333
0.83333333 0.56666667 0.56666667
0.86666667 0.53333333 0.53333333
0.9 0.56666667 0.56666667
0.93333333 0.53333333 0.53333333
0.96666667 0.56666667 0.56666667
-0 0.6 0.53333333
0.03333333 0.63333333 0.56666667
0.06666667 0.6 0.53333333
0.1 0.63333333 0.56666667
0.13333333 0.6 0.53333333
0.16666667 0.63333333 0.56666667
0.2 0.6 0.53333333
0.23333333 0.63333333 0.56666667
0.26666667 0.6 0.53333333
0.3 0.63333333 0.56666667
0.33333333 0.6 0.53333333
0.36666667 0.63333333 0.56666667
0.4 0.6 0.53333333
0.43333333 0.63333333 0.56666667
0.46666667 0.6 0.53333333
0.5 0.63333333 0.56666667
0.53333333 0.6 0.53333333
0.56666667 0.63333333 0.56666667
0.6 0.6 0.53333333
0.63333333 0.63333333 0.56666667
0.66666667 0.6 0.53333333
0.7 0.63333333 0.56666667
0.73333333 0.6 0.53333333
0.76666667 0.63333333 0.56666667
0.8 0.6 0.53333333
0.83333333 0.63333333 0.56666667
0.86666667 0.6 0.53333333
0.9 0.63333333 0.56666667
0.93333333 0.6 0.53333333
0.96666667 0.63333333 0.56666667
-0 0.66666667 0.53333333
0.03333333 0.7 0.56666667
0.06666667 0.66666667 0.53333333
0.1 0.7 0.56666667
0.13333333 0.66666667 0.53333333
0.16666667 0.7 0.56666667
0.2 0.66666667 0.53333333
0.23333333 0.7 0.56666667
0.26666667 0.66666667 0.53333333
0.3 0.7 0.56666667
0.33333333 0.66666667 0.53333333
0.36666667 0.7 0.56666667
0.4 0.66666667 0.53333333
0.43333333 0.7 0.56666667
0.46666667 0.66666667 0.53333333
0.5 0.7 0.56666667
0.53333333 0.66666667 0.53333333
0.56666667 0.7 0.56666667
0.6 0.66666667 0.53333333
0.63333333 0.7 0.56666667
0.66666667 0.66666667 0.53333333
0.7 0.7 0.56666667
0.73333333 0.66666667 0.53333333
0.76666667 0.7 0.56666667
0.8 0.66666667 0.53333333
0.83333333 0.7 0.56666667
0.86666667 0.66666667 0.53333333
0.9 0.7 0.56666667
0.93333333 0.66666667 0.53333333
0.96666667 0.7 0.56666667
-0 0.73333333 0.53333333
0.03333333 0.76666667 0.56666667
0.06666667 0.73333333 0.53333333
0.1 0.76666667 0.56666667
0.13333333 0.73333333 0.53333333
0.16666667 0.76666667 0.56666667
0.2 0.73333333 0.53333333
0.23333333 0.76666667 0.56666667
0.26666667 0.73333333 0.53333333
0.3 0.76666667 0.56666667
0.33333333 0.73333333 0.53333333
0.36666667 0.76666667 0.56666667
0.4 0.73333333 0.53333333
0.43333333 0.76666667 0.56666667
0.46666667 0.73333333 0.53333333
0.5 0.76666667 0.56666667
0.53333333 0.73333333 0.53333333
0.56666667 0.76666667 0.56666667
0.6 0.73333333 0.53333333
0.63333333 0.76666667 0.56666667
0.66666667 0.73333333 0.53333333
0.7 0.76666667 0.56666667
0.73333333 0.73333333 0.53333333
0.76666667 0.76666667 0.56666667
0.8 0.73333333 0.53333333
0.83333333 0.76666667 0.56666667
0.86666667 0.73333333 0.53333333
0.9 0.76666667 0.56666667
0.93333333 0.73333333 0.53333333
0.96666667 0.76666667 0.56666667
-0 0.8 0.53333333
0.03333333 0.83333333 0.56666667
0.06666667 0.8 0.53333333
0.1 0.83333333 0.56666667
0.13333333 0.8 0.53333333
0.16666667 0.83333333 0.56666667
0.2 0.8 0.53333333
0.23333333 0.83333333 0.56666667
0.26666667 0.8 0.53333333
0.3 0.83333333 0.56666667
0.33333333 0.8 0.53333333
0.36666667 0.83333333 0.56666667
0.4 0.8 0.53333333
0.43333333 0.83333333 0.56666667
0.46666667 0.8 0.53333333
0.5 0.83333333 0.56666667
0.53333333 0.8 0.53333333
0.56666667 0.83333333 0.56666667
0.6 0.8 0.53333333
0.63333333 0.83333333 0.56666667
0.66666667 0.8 0.53333333
0.7 0.83333333 0.56666667
0.73333333 0.8 0.53333333
0.76666667 0.83333333 0.56666667
0.8 0.8 0.53333333
0.83333333 0.83333333 0.56666667
0.86666667 0.8 0.53333333
0.9 0.83333333 0.56666667
0.93333333 0.8 0.53333333
0.96666667 0.83333333 0.56666667
-0 0.86666667 0.53333333
0.03333333 0.9 0.56666667
0.06666667 0.86666667 0.53333333
0.1 0.9 0.56666667
0.13333333 0.86666667 0.53333333
0.16666667 0.9 0.56666667
0.2 0.86666667 0.53333333
0.23333333 0.9 0.56666667
0.26666667 0.86666667 0.53333333
0.3 0.9 0.56666667
0.33333333 0.86666667 0.53333333
0.36666667 0.9 0.56666667
0.4 0.86666667 0.53333333
0.43333333 0.9 0.56666667
0.46666667 0.86666667 0.53333333
0.5 0.9 0.56666667
0.53333333 0.86666667 0.53333333
0.56666667 0.9 0.56666667
0.6 0.86666667 0.53333333
0.63333333 0.9 0.56666667
0.66666667 0.86666667 0.53333333
0.7 0.9 0.56666667
0.73333333 0.86666667 0.53333333
0.76666667 0.9 0.56666667
0.8 0.86666667 0.53333333
0.83333333 0.9 0.56666667
0.86666667 0.86666667 0.53333333
0.9 0.9 0.56666667
0.93333333 0.86666667 0.53333333
0.96666667 0.9 0.56666667
-0 0.93333333 0.53333333
0.03333333 0.96666667 0.56666667
0.06666667 0.93333333 0.53333333
0.1 0.96666667 0.56666667
0.13333333 0.93333333 0.53333333
0.16666667 0.96666667 0.56666667
0.2 0.93333333 0.53333333
0.23333333 0.96666667 0.56666667
0.26666667 0.93333333 0.53333333
0.3 0.96666667 0.56666667
0.33333333 0.93333333 0.53333333
0.36666667 0.96666667 0.56666667
0.4 0.93333333 0.53333333
0.43333333 0.96666667 0.56666667
0.46666667 0.93333333 0.53333333
0.5 0.96666667 0.56666667
0.53333333 0.93333333 0.53333333
0.56666667 0.96666667 0.56666667
0.6 0.93333333 0.53333333
0.63333333 0.96666667 0.56666667
0.66666667 0.93333333 0.53333333
0.7 0.96666667 0.56666667
0.73333333 0.93333333 0.53333333
0.76666667 0.96666667 0.56666667
0.8 0.93333333 0.53333333
0.83333333 0.96666667 0.56666667
0.86666667 0.93333333 0.53333333
0.9 0.96666667 0.56666667
0.93333333 0.93333333 0.53333333
0.96666667 0.96666667 0.56666667
-0 -0 0.6
0.03333333 0.03333333 0.63333333
0.06666667 -0 0.6
0.1 0.03333333 0.63333333
0.13333333 -0 0.6
0.16666667 0.03333333 0.63333333
0.2 -0 0.6
0.23333333 0.03333333 0.63333333
0.26666667 -0 0.6
0.3 0.03333333 0.63333333
0.33333333 -0 0.6
0.36666667 0.03333333 0.63333333
0.4 -0 0.6
0.43333333 0.03333333 0.63333333
0.46666667 -0 0.6
0.5 0.03333333 0.63333333
0.53333333 -0 0.6
0.56666667 0.03333333 0.63333333
0.6 -0 0.6
0.63333333 0.03333333 0.63333333
0.66666667 -0 0.6
0.7 0.03333333 0.63333333
0.73333333 -0 0.6
0.76666667 0.03333333 0.63333333
0.8 -0 0.6
0.83333333 0.03333333 0.63333333
0.86666667 -0 0.6
0.9 0.03333333 0.63333333
0.93333333 -0 0.6
0.96666667 0.03333333 0.63333333
-0 0.06666667 0.6
0.03333333 0.1 0.63333333
0.06666667 0.06666667 0.6
0.1 0.1 0.63333333
0.13333333 0.06666667 0.6
0.16666667 0.1 0.63333333
0.2 0.06666667 0.6
0.23333333 0.1 0.63333333
0.26666667 0.06666667 0.6
0.3 0.1 0.63333333
0.33333333 0.06666667 0.6
0.36666667 0.1 0.63333333
0.4 0.06666667 0.6
0.43333333 0.1 0.63333333
0.46666667 0.06666667 0.6
0.5 0.1 0.63333333
0.53333333 0.06666667 0.6
0.56666667 0.1 0.63333333
0.6 0.06666667 0.6
0.63333333 0.1 0.63333333
0.66666667 0.06666667 0.6
0.7 0.1 0.63333333
0.73333333 0.06666667 0.6
0.76666667 0.1 0.63333333
0.8 0.06666667 0.6
0.83333333 0.1 0.63333333
0.86666667 0.06666667 0.6
0.9 0.1 0.63333333
0.93333333 0.06666667 0.6
0.96666667 0.1 0.63333333
-0 0.13333333 0.6
0.03333333 0.16666667 0.63333333
0.06666667 0.13333333 0.6
0.1 0.16666667 0.63333333
0.13333333 0.13333333 0.6
0.16666667 0.16666667 0.63333333
0.2 0.13333333 0.6
0.23333333 0.16666667 0.63333333
0.26666667 0.13333333 0.6
0.3 0.16666667 0.63333333
0.33333333 0.13333333 0.6
0.36666667 0.16666667 0.63333333
0.4 0.13333333 0.6
0.43333333 0.16666667 0.63333333
0.46666667 0.13333333 0.6
0.5 0.16666667 0.63333333
0.53333333 0.13333333 0.6
0.56666667 0.16666667 0.63333333
0.6 0.13333333 0.6
0.63333333 0.16666667 0.63333333
0.66666667 0.13333333 0.6
0.7 0.16666667 0.63333333
0.73333333 0.13333333 0.6
0.76666667 0.16666667 0.63333333
0.8 0.13333333 0.6
0.83333333 0.16666667 0.63333333
0.86666667 0.13333333 0.6
0.9 0.16666667 0.63333333
0.93333333 0.13333333 0.6
0.96666667 0.16666667 0.63333333
-0 0.2 0.6
0.03333333 0.23333333 0.63333333
0.06666667 0.2 0.6
0.1 0.23333333 0.63333333
0.13333333 0.2 0.6
0.16666667 0.23333333 0.63333333
0.2 0.2 0.6
0.23333333 0.23333333 0.63333333
0.26666667 0.2 0.6
0.3 0.23333333 0.63333333
0.33333333 0.2 0.6
0.36666667 0.23333333 0.63333333
0.4 0.2 0.6
0.43333333 0.23333333 0.63333333
0.46666667 0.2 0.6
0.5 0.23333333 0.63333333
0.53333333 0.2 0.6
0.56666667 0.23333333 0.63333333
0.6 0.2 0.6
0.63333333 0.23333333 0.63333333
0.66666667 0.2 0.6
0.7 0.23333333 0.63333333
0.73333333 0.2 0.6
0.76666667 0.23333333 0.63333333
0.8 0.2 0.6
0.83333333 0.23333333 0.63333333
0.86666667 0.2 0.6
0.9 0.23333333 0.63333333
0.93333333 0.2 0.6
0.96666667 0.23333333 0.63333333
-0 0.26666667 0.6
0.03333333 0.3 0.63333333
0.06666667 0.26666667 0.6
0.1 0.3 0.63333333
0.13333333 0.26666667 0.6
0.16666667 0.3 0.63333333
0.2 0.26666667 0.6
0.23333333 0.3 0.63333333
0.26666667 0.26666667 0.6
0.3 0.3 0.63333333
0.33333333 0.26666667 0.6
0.36666667 0.3 0.63333333
0.4 0.26666667 0.6
0.43333333 0.3 0.63333333
0.46666667 0.26666667 0.6
0.5 0.3 0.63333333
0.53333333 0.26666667 0.6
0.56666667 0.3 0.63333333
0.6 0.26666667 0.6
0.63333333 0.3 0.63333333
0.66666667 0.26666667 0.6
0.7 0.3 0.63333333
0.73333333 0.26666667 0.6
0.76666667 0.3 0.63333333
0.8 0.26666667 0.6
0.83333333 0.3 0.63333333
0.86666667 0.26666667 0.6
0.9 0.3 0.63333333
0.93333333 0.26666667 0.6
0.96666667 0.3 0.63333333
-0 0.33333333 0.6
0.03333333 0.36666667 0.63333333
0.06666667 0.33333333 0.6
0.1 0.36666667 0.63333333
0.13333333 0.33333333 0.6
0.16666667 0.36666667 0.63333333
0.2 0.33333333 0.6
0.23333333 0.36666667 0.63333333
0.26666667 0.33333333 0.6
0.3 0.36666667 0.63333333
0.33333333 0.33333333 0.6
0.36666667 0.36666667 0.63333333
0.4 0.33333333 0.6
0.43333333 0.36666667 0.63333333
0.46666667 0.33333333 0.6
0.5 0.36666667 0.63333333
0.53333333 0.33333333 0.6
0.56666667 0.36666667 0.63333333
0.6 0.33333333 0.6
0.63333333 0.36666667 0.63333333
0.66666667 0.33333333 0.6
0.7 0.36666667 0.63333333
0.73333333 0.33333333 0.6
0.76666667 0.36666667 0.63333333
0.8 0.33333333 0.6
0.83333333 0.36666667 0.63333333
0.86666667 0.33333333 0.6
0.9 0.36666667 0.63333333
0.93333333 0.33333333 0.6
0.96666667 0.36666667 0.63333333
-0 0.4 0.6
0.03333333 0.43333333 0.63333333
0.06666667 0.4 0.6
0.1 0.43333333 0.63333333
0.13333333 0.4 0.6
0.16666667 0.43333333 0.63333333
0.2 0.4 0.6
0.23333333 0.43333333 0.63333333
0.26666667 0.4 0.6
0.3 0.43333333 0.63333333
0.33333333 0.4 0.6
0.36666667 0.43333333 0.63333333
0.4 0.4 0.6
0.43333333 0.43333333 0.63333333
0.46666667 0.4 0.6
0.5 0.43333333 0.63333333
0.53333333 0.4 0.6
0.56666667 0.43333333 0.63333333
0.6 0.4 0.6
0.63333333 0.43333333 0.63333333
0.66666667 0.4 0.6
0.7 0.43333333 0.63333333
0.73333333 0.4 0.6
0.76666667 0.43333333 0.63333333
0.8 0.4 0.6
0.83333333 0.43333333 0.63333333
0.86666667 0.4 0.6
0.9 0.43333333 0.63333333
0.93333333 0.4 0.6
0.96666667 0.43333333 0.63333333
-0 0.46666667 0.6
0.03333333 0.5 0.63333333
0.06666667 0.46666667 0.6
0.1 0.5 0.63333333
0.13333333 0.46666667 0.6
0.16666667 0.5 0.63333333
0.2 0.46666667 0.6
0.23333333 0.5 0.63333333
0.26666667 0.46666667 0.6
0.3 0.5 0.63333333
0.33333333 0.46666667 0.6
0.36666667 0.5 0.63333333
0.4 0.46666667 0.6
0.43333333 0.5 0.63333333
0.46666667 0.46666667 0.6
0.5 0.5 0.63333333
0.53333333 0.46666667 0.6
0.56666667 0.5 0.63333333
0.6 0.46666667 0.6
0.63333333 0.5 0.63333333
0.66666667 0.46666667 0.6
0.7 0.5 0.63333333
0.73333333 0.46666667 0.6
0.76666667 0.5 0.63333333
0.8 0.46666667 0.6
0.83333333 0.5 0.63333333
0.86666667 0.46666667 0.6
0.9 0.5 0.63333333
0.93333333 0.46666667 0.6
0.96666667 0.5 0.63333333
-0 0.53333333 0.6
0.03333333 0.56666667 0.63333333
0.06666667 0.53333333 0.6
0.1 0.56666667 0.63333333
0.13333333 0.53333333 0.6
0.16666667 0.56666667 0.63333333
0.2 0.53333333 0.6
0.23333333 0.56666667 0.63333333
0.26666667 0.53333333 0.6
0.3 0.56666667 0.63333333
0.33333333 0.53333333 0.6
0.36666667 0.56666667 0.63333333
0.4 0.53333333 0.6
0.43333333 0.56666667 0.63333333
0.46666667 0.53333333 0.6
0.5 0.56666667 0.63333333
0.53333333 0.53333333 0.6
0.56666667 0.56666667 0.63333333
0.6 0.53333333 0.6
0.63333333 0.56666667 0.63333333
0.66666667 0.53333333 0.6
0.7 0.56666667 0.63333333
0.73333333 0.53333333 0.6
0.76666667 0.56666667 0.63333333
0.8 0.53333333 0.6
0.83333333 0.56666667 0.63333333
0.86666667 0.53333333 0.6
0.9 0.56666667 0.63333333
0.93333333 0.53333333 0.6
0.96666667 0.56666667 0.63333333
-0 0.6 0.6
0.03333333 0.63333333 0.63333333
0.06666667 0.6 0.6
0.1 0.63333333 0.63333333
0.13333333 0.6 0.6
0.16666667 0.63333333 0.63333333
0.2 0.6 0.6
0.23333333 0.63333333 0.63333333
0.26666667 0.6 0.6
0.3 0.63333333 0.63333333
0.33333333 0.6 0.6
0.36666667 0.63333333 0.63333333
0.4 0.6 0.6
0.43333333 0.63333333 0.63333333
0.46666667 0.6 0.6
0.5 0.63333333 0.63333333
0.53333333 0.6 0.6
0.56666667 0.63333333 0.63333333
0.6 0.6 0.6
0.63333333 0.63333333 0.63333333
0.66666667 0.6 0.6
0.7 0.63333333 0.63333333
0.73333333 0.6 0.6
0.76666667 0.63333333 0.63333333
0.8 0.6 0.6
0.83333333 0.63333333 0.63333333
0.86666667 0.6 0.6
0.9 0.63333333 0.63333333
0.93333333 0.6 0.6
0.96666667 0.63333333 0.63333333
-0 0.66666667 0.6
0.03333333 0.7 0.63333333
0.06666667 0.66666667 0.6
0.1 0.7 0.63333333
0.13333333 0.66666667 0.6
0.16666667 0.7 0.63333333
0.2 0.66666667 0.6
0.23333333 0.7 0.63333333
0.26666667 0.66666667 0.6
0.3 0.7 0.63333333
0.33333333 0.66666667 0.6
0.36666667 0.7 0.63333333
0.4 0.66666667 0.6
0.43333333 0.7 0.63333333
0.46666667 0.66666667 0.6
0.5 0.7 0.63333333
0.53333333 0.66666667 0.6
0.56666667 0.7 0.63333333
0.6 0.66666667 0.6
0.63333333 0.7 0.63333333
0.66666667 0.66666667 0.6
0.7 0.7 0.63333333
0.73333333 0.66666667 0.6
0.76666667 0.7 0.63333333
0.8 0.66666667 0.6
0.83333333 0.7 0.63333333
0.86666667 0.66666667 0.6
0.9 0.7 0.63333333
0.93333333 0.66666667 0.6
0.96666667 0.7 0.63333333
-0 0.73333333 0.6
0.03333333 0.76666667 0.63333333
0.06666667 0.73333333 0.6
0.1 0.76666667 0.63333333
0.13333333 0.73333333 0.6
0.16666667 0.76666667 0.63333333
0.2 0.73333333 0.6
0.23333333 0.76666667 0.63333333
0.26666667 0.73333333 0.6
0.3 0.76666667 0.63333333
0.33333333 0.73333333 0.6
0.36666667 0.76666667 0.63333333
0.4 0.73333333 0.6
0.43333333 0.76666667 0.63333333
0.46666667 0.73333333 0.6
0.5 0.76666667 0.63333333
0.53333333 0.73333333 0.6
0.56666667 0.76666667 0.63333333
0.6 0.73333333 0.6
0.63333333 0.76666667 0.63333333
0.66666667 0.73333333 0.6
0.7 0.76666667 0.63333333
0.73333333 0.73333333 0.6
0.76666667 0.76666667 0.63333333
0.8 0.73333333 0.6
0.83333333 0.76666667 0.63333333
0.86666667 0.73333333 0.6
0.9 0.76666667 0.63333333
0.93333333 0.73333333 0.6
0.96666667 0.76666667 0.63333333
-0 0.8 0.6
0.03333333 0.83333333 0.63333333
0.06666667 0.8 0.6
0.1 0.83333333 0.63333333
0.13333333 0.8 0.6
0.16666667 0.83333333 0.63333333
0.2 0.8 0.6
0.23333333 0.83333333 0.63333333
0.26666667 0.8 0.6
0.3 0.83333333 0.63333333
0.33333333 0.8 0.6
0.36666667 0.83333333 0.63333333
0.4 0.8 0.6
0.43333333 0.83333333 0.63333333
0.46666667 0.8 0.6
0.5 0.83333333 0.63333333
0.53333333 0.8 0.6
0.56666667 0.83333333 0.63333333
0.6 0.8 0.6
0.63333333 0.83333333 0.63333333
0.66666667 0.8 0.6
0.7 0.83333333 0.63333333
0.73333333 0.8 0.6
0.76666667 0.83333333 0.63333333
0.8 0.8 0.6
0.83333333 0.83333333 0.63333333
0.86666667 0.8 0.6
0.9 0.83333333 0.63333333
0.93333333 0.8 0.6
0.96666667 0.83333333 0.63333333
-0 0.86666667 0.6
0.03333333 0.9 0.63333333
0.06666667 0.86666667 0.6
0.1 0.9 0.63333333
0.13333333 0.86666667 0.6
0.16666667 0.9 0.63333333
0.2 0.86666667 0.6
0.23333333 0.9 0.63333333
0.26666667 0.86666667 0.6
0.3 0.9 0.63333333
0.33333333 0.86666667 0.6
0.36666667 0.9 0.63333333
0.4 0.86666667 0.6
0.43333333 0.9 0.63333333
0.46666667 0.86666667 0.6
0.5 0.9 0.63333333
0.53333333 0.86666667 0.6
0.56666667 0.9 0.63333333
0.6 0.86666667 0.6
0.63333333 0.9 0.63333333
0.66666667 0.86666667 0.6
0.7 0.9 0.63333333
0.73333333 0.86666667 0.6
0.76666667 0.9 0.63333333
0.8 0.86666667 0.6
0.83333333 0.9 0.63333333
0.86666667 0.86666667 0.6
0.9 0.9 0.63333333
0.93333333 0.86666667 0.6
0.96666667 0.9 0.63333333
-0 0.93333333 0.6
0.03333333 0.96666667 0.63333333
0.06666667 0.93333333 0.6
0.1 0.96666667 0.63333333
0.13333333 0.93333333 0.6
0.16666667 0.96666667 0.63333333
0.2 0.93333333 0.6
0.23333333 0.96666667 0.63333333
0.26666667 0.93333333 0.6
0.3 0.96666667 0.63333333
0.33333333 0.93333333 0.6
0.36666667 0.96666667 0.63333333
0.4 0.93333333 0.6
0.43333333 0.96666667 0.63333333
0.46666667 0.93333333 0.6
0.5 0.96666667 0.63333333
0.53333333 0.93333333 0.6
0.56666667 0.96666667 0.63333333
0.6 0.93333333 0.6
0.63333333 0.96666667 0.63333333
0.66666667 0.93333333 0.6
0.7 0.96666667 0.63333333
0.73333333 0.93333333 0.6
0.76666667 0.96666667 0.63333333
0.8 0.93333333 0.6
0.83333333 0.96666667 0.63333333
0.86666667 0.93333333 0.6
0.9 0.96666667 0.63333333
0.93333333 0.93333333 0.6
0.96666667 0.96666667 0.63333333
-0 -0 0.66666667
0.03333333 0.03333333 0.7
0.06666667 -0 0.66666667
0.1 0.03333333 0.7
0.13333333 -0 0.66666667
0.16666667 0.03333333 0.7
0.2 -0 0.66666667
0.23333333 0.03333333 0.7
0.26666667 -0 0.66666667
0.3 0.03333333 0.7
0.33333333 -0 0.66666667
0.36666667 0.03333333 0.7
0.4 -0 0.66666667
0.43333333 0.03333333 0.7
0.46666667 -0 0.66666667
0.5 0.03333333 0.7
0.53333333 -0 0.66666667
0.56666667 0.03333333 0.7
0.6 -0 0.66666667
0.63333333 0.03333333 0.7
0.66666667 -0 0.66666667
0.7 0.03333333 0.7
0.73333333 -0 0.66666667
0.76666667 0.03333333 0.7
0.8 -0 0.66666667
0.83333333 0.03333333 0.7
0.86666667 -0 0.66666667
0.9 0.03333333 0.7
0.93333333 -0 0.66666667
0.96666667 0.03333333 0.7
-0 0.06666667 0.66666667
0.03333333 0.1 0.7
0.06666667 0.06666667 0.66666667
0.1 0.1 0.7
0.13333333 0.06666667 0.66666667
0.16666667 0.1 0.7
0.2 0.06666667 0.66666667
0.23333333 0.1 0.7
0.26666667 0.06666667 0.66666667
0.3 0.1 0.7
0.33333333 0.06666667 0.66666667
0.36666667 0.1 0.7
0.4 0.06666667 0.66666667
0.43333333 0.1 0.7
0.46666667 0.06666667 0.66666667
0.5 0.1 0.7
0.53333333 0.06666667 0.66666667
0.56666667 0.1 0.7
0.6 0.06666667 0.66666667
0.63333333 0.1 0.7
0.66666667 0.06666667 0.66666667
0.7 0.1 0.7
0.73333333 0.06666667 0.66666667
0.76666667 0.1 0.7
0.8 0.06666667 0.66666667
0.83333333 0.1 0.7
0.86666667 0.06666667 0.66666667
0.9 0.1 0.7
0.93333333 0.06666667 0.66666667
0.96666667 0.1 0.7
-0 0.13333333 0.66666667
0.03333333 0.16666667 0.7
0.06666667 0.13333333 0.66666667
0.1 0.16666667 0.7
0.13333333 0.13333333 0.66666667
0.16666667 0.16666667 0.7
0.2 0.13333333 0.66666667
0.23333333 0.16666667 0.7
0.26666667 0.13333333 0.66666667
0.3 0.16666667 0.7
0.33333333 0.13333333 0.66666667
0.36666667 0.16666667 0.7
0.4 0.13333333 0.66666667
0.43333333 0.16666667 0.7
0.46666667 0.13333333 0.66666667
0.5 0.16666667 0.7
0.53333333 0.13333333 0.66666667
0.56666667 0.16666667 0.7
0.6 0.13333333 0.66666667
0.63333333 0.16666667 0.7
0.66666667 0.13333333 0.66666667
0.7 0.16666667 0.7
0.73333333 0.13333333 0.66666667
0.76666667 0.16666667 0.7
0.8 0.13333333 0.66666667
0.83333333 0.16666667 0.7
0.86666667 0.13333333 0.66666667
0.9 0.16666667 0.7
0.93333333 0.13333333 0.66666667
0.96666667 0.16666667 0.7
-0 0.2 0.66666667
0.03333333 0.23333333 0.7
0.06666667 0.2 0.66666667
0.1 0.23333333 0.7
0.13333333 0.2 0.66666667
0.16666667 0.23333333 0.7
0.2 0.2 0.66666667
0.23333333 0.23333333 0.7
0.26666667 0.2 0.66666667
0.3 0.23333333 0.7
0.33333333 0.2 0.66666667
0.36666667 0.23333333 0.7
0.4 0.2 0.66666667
0.43333333 0.23333333 0.7
0.46666667 0.2 0.66666667
0.5 0.23333333 0.7
0.53333333 0.2 0.66666667
0.56666667 0.23333333 0.7
0.6 0.2 0.66666667
0.63333333 0.23333333 0.7
0.66666667 0.2 0.66666667
0.7 0.23333333 0.7
0.73333333 0.2 0.66666667
0.76666667 0.23333333 0.7
0.8 0.2 0.66666667
0.83333333 0.23333333 0.7
0.86666667 0.2 0.66666667
0.9 0.23333333 0.7
0.93333333 0.2 0.66666667
0.96666667 0.23333333 0.7
-0 0.26666667 0.66666667
0.03333333 0.3 0.7
0.06666667 0.26666667 0.66666667
0.1 0.3 0.7
0.13333333 0.26666667 0.66666667
0.16666667 0.3 0.7
0.2 0.26666667 0.66666667
0.23333333 0.3 0.7
0.26666667 0.26666667 0.66666667
0.3 0.3 0.7
0.33333333 0.26666667 0.66666667
0.36666667 0.3 0.7
0.4 0.26666667 0.66666667
0.43333333 0.3 0.7
0.46666667 0.26666667 0.66666667
0.5 0.3 0.7
0.53333333 0.26666667 0.66666667
0.56666667 0.3 0.7
0.6 0.26666667 0.66666667
0.63333333 0.3 0.7
0.66666667 0.26666667 0.66666667
0.7 0.3 0.7
0.73333333 0.26666667 0.66666667
0.76666667 0.3 0.7
0.8 0.26666667 0.66666667
0.83333333 0.3 0.7
0.86666667 0.26666667 0.66666667
0.9 0.3 0.7
0.93333333 0.26666667 0.66666667
0.96666667 0.3 0.7
-0 0.33333333 0.66666667
0.03333333 0.36666667 0.7
0.06666667 0.33333333 0.66666667
0.1 0.36666667 0.7
0.13333333 0.33333333 0.66666667
0.16666667 0.36666667 0.7
0.2 0.33333333 0.66666667
0.23333333 0.36666667 0.7
0.26666667 0.33333333 0.66666667
0.3 0.36666667 0.7
0.33333333 0.33333333 0.66666667
0.36666667 0.36666667 0.7
0.4 0.33333333 0.66666667
0.43333333 0.36666667 0.7
0.46666667 0.33333333 0.66666667
0.5 0.36666667 0.7
0.53333333 0.33333333 0.66666667
0.56666667 0.36666667 0.7
0.6 0.33333333 0.66666667
0.63333333 0.36666667 0.7
0.66666667 0.33333333 0.66666667
0.7 0.36666667 0.7
0.73333333 0.33333333 0.66666667
0.76666667 0.36666667 0.7
0.8 0.33333333 0.66666667
0.83333333 0.36666667 0.7
0.86666667 0.33333333 0.66666667
0.9 0.36666667 0.7
0.93333333 0.33333333 0.66666667
0.96666667 0.36666667 0.7
-0 0.4 0.66666667
0.03333333 0.43333333 0.7
0.06666667 0.4 0.66666667
0.1 0.43333333 0.7
0.13333333 0.4 0.66666667
0.16666667 0.43333333 0.7
0.2 0.4 0.66666667
0.23333333 0.43333333 0.7
0.26666667 0.4 0.66666667
0.3 0.43333333 0.7
0.33333333 0.4 0.66666667
0.36666667 0.43333333 0.7
0.4 0.4 0.66666667
0.43333333 0.43333333 0.7
0.46666667 0.4 0.66666667
0.5 0.43333333 0.7
0.53333333 0.4 0.66666667
0.56666667 0.43333333 0.7
0.6 0.4 0.66666667
0.63333333 0.43333333 0.7
0.66666667 0.4 0.66666667
0.7 0.43333333 0.7
0.73333333 0.4 0.66666667
0.76666667 0.43333333 0.7
0.8 0.4 0.66666667
0.83333333 0.43333333 0.7
0.86666667 0.4 0.66666667
0.9 0.43333333 0.7
0.93333333 0.4 0.66666667
0.96666667 0.43333333 0.7
-0 0.46666667 0.66666667
0.03333333 0.5 0.7
0.06666667 0.46666667 0.66666667
0.1 0.5 0.7
0.13333333 0.46666667 0.66666667
0.16666667 0.5 0.7
0.2 0.46666667 0.66666667
0.23333333 0.5 0.7
0.26666667 0.46666667 0.66666667
0.3 0.5 0.7
0.33333333 0.46666667 0.66666667
0.36666667 0.5 0.7
0.4 0.46666667 0.66666667
0.43333333 0.5 0.7
0.46666667 0.46666667 0.66666667
0.5 0.5 0.7
0.53333333 0.46666667 0.66666667
0.56666667 0.5 0.7
0.6 0.46666667 0.66666667
0.63333333 0.5 0.7
0.66666667 0.46666667 0.66666667
0.7 0.5 0.7
0.73333333 0.46666667 0.66666667
0.76666667 0.5 0.7
0.8 0.46666667 0.66666667
0.83333333 0.5 0.7
0.86666667 0.46666667 0.66666667
0.9 0.5 0.7
0.93333333 0.46666667 0.66666667
0.96666667 0.5 0.7
-0 0.53333333 0.66666667
0.03333333 0.56666667 0.7
0.06666667 0.53333333 0.66666667
0.1 0.56666667 0.7
0.13333333 0.53333333 0.66666667
0.16666667 0.56666667 0.7
0.2 0.53333333 0.66666667
0.23333333 0.56666667 0.7
0.26666667 0.53333333 0.66666667
0.3 0.56666667 0.7
0.33333333 0.53333333 0.66666667
0.36666667 0.56666667 0.7
0.4 0.53333333 0.66666667
0.43333333 0.56666667 0.7
0.46666667 0.53333333 0.66666667
0.5 0.56666667 0.7
0.53333333 0.53333333 0.66666667
0.56666667 0.56666667 0.7
0.6 0.53333333 0.66666667
0.63333333 0.56666667 0.7
0.66666667 0.53333333 0.66666667
0.7 0.56666667 0.7
0.73333333 0.53333333 0.66666667
0.76666667 0.56666667 0.7
0.8 0.53333333 0.66666667
0.83333333 0.56666667 0.7
0.86666667 0.53333333 0.66666667
0.9 0.56666667 0.7
0.93333333 0.53333333 0.66666667
0.96666667 0.56666667 0.7
-0 0.6 0.66666667
0.03333333 0.63333333 0.7
0.06666667 0.6 0.66666667
0.1 0.63333333 0.7
0.13333333 0.6 0.66666667
0.16666667 0.63333333 0.7
0.2 0.6 0.66666667
0.23333333 0.63333333 0.7
0.26666667 0.6 0.66666667
0.3 0.63333333 0.7
0.33333333 0.6 0.66666667
0.36666667 0.63333333 0.7
0.4 0.6 0.66666667
0.43333333 0.63333333 0.7
0.46666667 0.6 0.66666667
0.5 0.63333333 0.7
0.53333333 0.6 0.66666667
0.56666667 0.63333333 0.7
0.6 0.6 0.66666667
0.63333333 0.63333333 0.7
0.66666667 0.6 0.66666667
0.7 0.63333333 0.7
0.73333333 0.6 0.66666667
0.76666667 0.63333333 0.7
0.8 0.6 0.66666667
0.83333333 0.63333333 0.7
0.86666667 0.6 0.66666667
0.9 0.63333333 0.7
0.93333333 0.6 0.66666667
0.96666667 0.63333333 0.7
-0 0.66666667 0.66666667
0.03333333 0.7 0.7
0.06666667 0.66666667 0.66666667
0.1 0.7 0.7
0.13333333 0.66666667 0.66666667
0.16666667 0.7 0.7
0.2 0.66666667 0.66666667
0.23333333 0.7 0.7
0.26666667 0.66666667 0.66666667
0.3 0.7 0.7
0.33333333 0.66666667 0.66666667
0.36666667 0.7 0.7
0.4 0.66666667 0.66666667
0.43333333 0.7 0.7
0.46666667 0.66666667 0.66666667
0.5 0.7 0.7
0.53333333 0.66666667 0.66666667
0.56666667 0.7 0.7
0.6 0.66666667 0.66666667
0.63333333 0.7 0.7
0.66666667 0.66666667 0.66666667
0.7 0.7 0.7
0.73333333 0.66666667 0.66666667
0.76666667 0.7 0.7
0.8 0.66666667 0.66666667
0.83333333 0.7 0.7
0.86666667 0.66666667 0.66666667
0.9 0.7 0.7
0.93333333 0.66666667 0.66666667
0.96666667 0.7 0.7
-0 0.73333333 0.66666667
0.03333333 0.76666667 0.7
0.06666667 0.73333333 0.66666667
0.1 0.76666667 0.7
0.13333333 0.73333333 0.66666667
0.16666667 0.76666667 0.7
0.2 0.73333333 0.66666667
0.23333333 0.76666667 0.7
0.26666667 0.73333333 0.66666667
0.3 0.76666667 0.7
0.33333333 0.73333333 0.66666667
0.36666667 0.76666667 0.7
0.4 0.73333333 0.66666667
0.43333333 0.76666667 0.7
0.46666667 0.73333333 0.66666667
0.5 0.76666667 0.7
0.53333333 0.73333333 0.66666667
0.56666667 0.76666667 0.7
0.6 0.73333333 0.66666667
0.63333333 0.76666667 0.7
0.66666667 0.73333333 0.66666667
0.7 0.76666667 0.7
0.73333333 0.73333333 0.66666667
0.76666667 0.76666667 0.7
0.8 0.73333333 0.66666667
0.83333333 0.76666667 0.7
0.86666667 0.73333333 0.66666667
0.9 0.76666667 0.7
0.93333333 0.73333333 0.66666667
0.96666667 0.76666667 0.7
-0 0.8 0.66666667
0.03333333 0.83333333 0.7
0.06666667 0.8 0.66666667
0.1 0.83333333 0.7
0.13333333 0.8 0.66666667
0.16666667 0.83333333 0.7
0.2 0.8 0.66666667
0.23333333 0.83333333 0.7
0.26666667 0.8 0.66666667
0.3 0.83333333 0.7
0.33333333 0.8 0.66666667
0.36666667 0.83333333 0.7
0.4 0.8 0.66666667
0.43333333 0.83333333 0.7
0.46666667 0.8 0.66666667
0.5 0.83333333 0.7
0.53333333 0.8 0.66666667
0.56666667 0.83333333 0.7
0.6 0.8 0.66666667
0.63333333 0.83333333 0.7
0.66666667 0.8 0.66666667
0.7 0.83333333 0.7
0.73333333 0.8 0.66666667
0.76666667 0.83333333 0.7
0.8 0.8 0.66666667
0.83333333 0.83333333 0.7
0.86666667 0.8 0.66666667
0.9 0.83333333 0.7
0.93333333 0.8 0.66666667
0.96666667 0.83333333 0.7
-0 0.86666667 0.66666667
0.03333333 0.9 0.7
0.06666667 0.86666667 0.66666667
0.1 0.9 0.7
0.13333333 0.86666667 0.66666667
0.16666667 0.9 0.7
0.2 0.86666667 0.66666667
0.23333333 0.9 0.7
0.26666667 0.86666667 0.66666667
0.3 0.9 0.7
0.33333333 0.86666667 0.66666667
0.36666667 0.9 0.7
0.4 0.86666667 0.66666667
0.43333333 0.9 0.7
0.46666667 0.86666667 0.66666667
0.5 0.9 0.7
0.53333333 0.86666667 0.66666667
0.56666667 0.9 0.7
0.6 0.86666667 0.66666667
0.63333333 0.9 0.7
0.66666667 0.86666667 0.66666667
0.7 0.9 0.7
0.73333333 0.86666667 0.66666667
0.76666667 0.9 0.7
0.8 0.86666667 0.66666667
0.83333333 0.9 0.7
0.86666667 0.86666667 0.66666667
0.9 0.9 0.7
0.93333333 0.86666667 0.66666667
0.96666667 0.9 0.7
-0 0.93333333 0.66666667
0.03333333 0.96666667 0.7
0.06666667 0.93333333 0.66666667
0.1 0.96666667 0.7
0.13333333 0.93333333 0.66666667
0.16666667 0.96666667 0.7
0.2 0.93333333 0.66666667
0.23333333 0.96666667 0.7
0.26666667 0.93333333 0.66666667
0.3 0.96666667 0.7
0.33333333 0.93333333 0.66666667
0.36666667 0.96666667 0.7
0.4 0.93333333 0.66666667
0.43333333 0.96666667 0.7
0.46666667 0.93333333 0.66666667
0.5 0.96666667 0.7
0.53333333 0.93333333 0.66666667
0.56666667 0.96666667 0.7
0.6 0.93333333 0.66666667
0.63333333 0.96666667 0.7
0.66666667 0.93333333 0.66666667
0.7 0.96666667 0.7
0.73333333 0.93333333 0.66666667
0.76666667 0.96666667 0.7
0.8 0.93333333 0.66666667
0.83333333 0.96666667 0.7
0.86666667 0.93333333 0.66666667
0.9 0.96666667 0.7
0.93333333 0.93333333 0.66666667
0.96666667 0.96666667 0.7
-0 -0 0.73333333
0.03333333 0.03333333 0.76666667
0.06666667 -0 0.73333333
0.1 0.03333333 0.76666667
0.13333333 -0 0.73333333
0.16666667 0.03333333 0.76666667
0.2 -0 0.73333333
0.23333333 0.03333333 0.76666667
0.26666667 -0 0.73333333
0.3 0.03333333 0.76666667
0.33333333 -0 0.73333333
0.36666667 0.03333333 0.76666667
0.4 -0 0.73333333
0.43333333 0.03333333 0.76666667
0.46666667 -0 0.73333333
0.5 0.03333333 0.76666667
0.53333333 -0 0.73333333
0.56666667 0.03333333 0.76666667
0.6 -0 0.73333333
0.63333333 0.03333333 0.76666667
0.66666667 -0 0.73333333
0.7 0.03333333 0.76666667
0.73333333 -0 0.73333333
0.76666667 0.03333333 0.76666667
0.8 -0 0.73333333
0.83333333 0.03333333 0.76666667
0.86666667 -0 0.73333333
0.9 0.03333333 0.76666667
0.93333333 -0 0.73333333
0.96666667 0.03333333 0.76666667
-0 0.06666667 0.73333333
0.03333333 0.1 0.76666667
0.06666667 0.06666667 0.73333333
0.1 0.1 0.76666667
0.13333333 0.06666667 0.73333333
0.16666667 0.1 0.76666667
0.2 0.06666667 0.73333333
0.23333333 0.1 0.76666667
0.26666667 0.06666667 0.73333333
0.3 0.1 0.76666667
0.33333333 0.06666667 0.73333333
0.36666667 0.1 0.76666667
0.4 0.06666667 0.73333333
0.43333333 0.1 0.76666667
0.46666667 0.06666667 0.73333333
0.5 0.1 0.76666667
0.53333333 0.06666667 0.73333333
0.56666667 0.1 0.76666667
0.6 0.06666667 0.73333333
0.63333333 0.1 0.76666667
0.66666667 0.06666667 0.73333333
0.7 0.1 0.76666667
0.73333333 0.06666667 0.73333333
0.76666667 0.1 0.76666667
0.8 0.06666667 0.73333333
0.83333333 0.1 0.76666667
0.86666667 0.06666667 0.73333333
0.9 0.1 0.76666667
0.93333333 0.06666667 0.73333333
0.96666667 0.1 0.76666667
-0 0.13333333 0.73333333
0.03333333 0.16666667 0.76666667
0.06666667 0.13333333 0.73333333
0.1 0.16666667 0.76666667
0.13333333 0.13333333 0.73333333
0.16666667 0.16666667 0.76666667
0.2 0.13333333 0.73333333
0.23333333 0.16666667 0.76666667
0.26666667 0.13333333 0.73333333
0.3 0.16666667 0.76666667
0.33333333 0.13333333 0.73333333
0.36666667 0.16666667 0.76666667
0.4 0.13333333 0.73333333
0.43333333 0.16666667 0.76666667
0.46666667 0.13333333 0.73333333
0.5 0.16666667 0.76666667
0.53333333 0.13333333 0.73333333
0.56666667 0.16666667 0.76666667
0.6 0.13333333 0.73333333
0.63333333 0.16666667 0.76666667
0.66666667 0.13333333 0.73333333
0.7 0.16666667 0.76666667
0.73333333 0.13333333 0.73333333
0.76666667 0.16666667 0.76666667
0.8 0.13333333 0.73333333
0.83333333 0.16666667 0.76666667
0.86666667 0.13333333 0.73333333
0.9 0.16666667 0.76666667
0.93333333 0.13333333 0.73333333
0.96666667 0.16666667 0.76666667
-0 0.2 0.73333333
0.03333333 0.23333333 0.76666667
0.06666667 0.2 0.73333333
0.1 0.23333333 0.76666667
0.13333333 0.2 0.73333333
0.16666667 0.23333333 0.76666667
0.2 0.2 0.73333333
0.23333333 0.23333333 0.76666667
0.26666667 0.2 0.73333333
0.3 0.23333333 0.76666667
0.33333333 0.2 0.73333333
0.36666667 0.23333333 0.76666667
0.4 0.2 0.73333333
0.43333333 0.23333333 0.76666667
0.46666667 0.2 0.73333333
0.5 0.23333333 0.76666667
0.53333333 0.2 0.73333333
0.56666667 0.23333333 0.76666667
0.6 0.2 0.73333333
0.63333333 0.23333333 0.76666667
0.66666667 0.2 0.73333333
0.7 0.23333333 0.76666667
0.73333333 0.2 0.73333333
0.76666667 0.23333333 0.76666667
0.8 0.2 0.73333333
0.83333333 0.23333333 0.76666667
0.86666667 0.2 0.73333333
0.9 0.23333333 0.76666667
0.93333333 0.2 0.73333333
0.96666667 0.23333333 0.76666667
-0 0.26666667 0.73333333
0.03333333 0.3 0.76666667
0.06666667 0.26666667 0.73333333
0.1 0.3 0.76666667
0.13333333 0.26666667 0.73333333
0.16666667 0.3 0.76666667
0.2 0.26666667 0.73333333
0.23333333 0.3 0.76666667
0.26666667 0.26666667 0.73333333
0.3 0.3 0.76666667
0.33333333 0.26666667 0.73333333
0.36666667 0.3 0.76666667
0.4 0.26666667 0.73333333
0.43333333 0.3 0.76666667
0.46666667 0.26666667 0.73333333
0.5 0.3 0.76666667
0.53333333 0.26666667 0.73333333
0.56666667 0.3 0.76666667
0.6 0.26666667 0.73333333
0.63333333 0.3 0.76666667
0.66666667 0.26666667 0.73333333
0.7 0.3 0.76666667
0.73333333 0.26666667 0.73333333
0.76666667 0.3 0.76666667
0.8 0.26666667 0.73333333
0.83333333 0.3 0.76666667
0.86666667 0.26666667 0.73333333
0.9 0.3 0.76666667
0.93333333 0.26666667 0.73333333
0.96666667 0.3 0.76666667
-0 0.33333333 0.73333333
0.03333333 0.36666667 0.76666667
0.06666667 0.33333333 0.73333333
0.1 0.36666667 0.76666667
0.13333333 0.33333333 0.73333333
0.16666667 0.36666667 0.76666667
0.2 0.33333333 0.73333333
0.23333333 0.36666667 0.76666667
0.26666667 0.33333333 0.73333333
0.3 0.36666667 0.76666667
0.33333333 0.33333333 0.73333333
0.36666667 0.36666667 0.76666667
0.4 0.33333333 0.73333333
0.43333333 0.36666667 0.76666667
0.46666667 0.33333333 0.73333333
0.5 0.36666667 0.76666667
0.53333333 0.33333333 0.73333333
0.56666667 0.36666667 0.76666667
0.6 0.33333333 0.73333333
0.63333333 0.36666667 0.76666667
0.66666667 0.33333333 0.73333333
0.7 0.36666667 0.76666667
0.73333333 0.33333333 0.73333333
0.76666667 0.36666667 0.76666667
0.8 0.33333333 0.73333333
0.83333333 0.36666667 0.76666667
0.86666667 0.33333333 0.73333333
0.9 0.36666667 0.76666667
0.93333333 0.33333333 0.73333333
0.96666667 0.36666667 0.76666667
-0 0.4 0.73333333
0.03333333 0.43333333 0.76666667
0.06666667 0.4 0.73333333
0.1 0.43333333 0.76666667
0.13333333 0.4 0.73333333
0.16666667 0.43333333 0.76666667
0.2 0.4 0.73333333
0.23333333 0.43333333 0.76666667
0.26666667 0.4 0.73333333
0.3 0.43333333 0.76666667
0.33333333 0.4 0.73333333
0.36666667 0.43333333 0.76666667
0.4 0.4 0.73333333
0.43333333 0.43333333 0.76666667
0.46666667 0.4 0.73333333
0.5 0.43333333 0.76666667
0.53333333 0.4 0.73333333
0.56666667 0.43333333 0.76666667
0.6 0.4 0.73333333
0.63333333 0.43333333 0.76666667
0.66666667 0.4 0.73333333
0.7 0.43333333 0.76666667
0.73333333 0.4 0.73333333
0.76666667 0.43333333 0.76666667
0.8 0.4 0.73333333
0.83333333 0.43333333 0.76666667
0.86666667 0.4 0.73333333
0.9 0.43333333 0.76666667
0.93333333 0.4 0.73333333
0.96666667 0.43333333 0.76666667
-0 0.46666667 0.73333333
0.03333333 0.5 0.76666667
0.06666667 0.46666667 0.73333333
0.1 0.5 0.76666667
0.13333333 0.46666667 0.73333333
0.16666667 0.5 0.76666667
0.2 0.46666667 0.73333333
0.23333333 0.5 0.76666667
0.26666667 0.46666667 0.73333333
0.3 0.5 0.76666667
0.33333333 0.46666667 0.73333333
0.36666667 0.5 0.76666667
0.4 0.46666667 0.73333333
0.43333333 0.5 0.76666667
0.46666667 0.46666667 0.73333333
0.5 0.5 0.76666667
0.53333333 0.46666667 0.73333333
0.56666667 0.5 0.76666667
0.6 0.46666667 0.73333333
0.63333333 0.5 0.76666667
0.66666667 0.46666667 0.73333333
0.7 0.5 0.76666667
0.73333333 0.46666667 0.73333333
0.76666667 0.5 0.76666667
0.8 0.46666667 0.73333333
0.83333333 0.5 0.76666667
0.86666667 0.46666667 0.73333333
0.9 0.5 0.76666667
0.93333333 0.46666667 0.73333333
0.96666667 0.5 0.76666667
-0 0.53333333 0.73333333
0.03333333 0.56666667 0.76666667
0.06666667 0.53333333 0.73333333
0.1 0.56666667 0.76666667
0.13333333 0.53333333 0.73333333
0.16666667 0.56666667 0.76666667
0.2 0.53333333 0.73333333
0.23333333 0.56666667 0.76666667
0.26666667 0.53333333 0.73333333
0.3 0.56666667 0.76666667
0.33333333 0.53333333 0.73333333
0.36666667 0.56666667 0.76666667
0.4 0.53333333 0.73333333
0.43333333 0.56666667 0.76666667
0.46666667 0.53333333 0.73333333
0.5 0.56666667 0.76666667
0.53333333 0.53333333 0.73333333
0.56666667 0.56666667 0.76666667
0.6 0.53333333 0.73333333
0.63333333 0.56666667 0.76666667
0.66666667 0.53333333 0.73333333
0.7 0.56666667 0.76666667
0.73333333 0.53333333 0.73333333
0.76666667 0.56666667 0.76666667
0.8 0.53333333 0.73333333
0.83333333 0.56666667 0.76666667
0.86666667 0.53333333 0.73333333
0.9 0.56666667 0.76666667
0.93333333 0.53333333 0.73333333
0.96666667 0.56666667 0.76666667
-0 0.6 0.73333333
0.03333333 0.63333333 0.76666667
0.06666667 0.6 0.73333333
0.1 0.63333333 0.76666667
0.13333333 0.6 0.73333333
0.16666667 0.63333333 0.76666667
0.2 0.6 0.73333333
0.23333333 0.63333333 0.76666667
0.26666667 0.6 0.73333333
0.3 0.63333333 0.76666667
0.33333333 0.6 0.73333333
0.36666667 0.63333333 0.76666667
0.4 0.6 0.73333333
0.43333333 0.63333333 0.76666667
0.46666667 0.6 0.73333333
0.5 0.63333333 0.76666667
0.53333333 0.6 0.73333333
0.56666667 0.63333333 0.76666667
0.6 0.6 0.73333333
0.63333333 0.63333333 0.76666667
0.66666667 0.6 0.73333333
0.7 0.63333333 0.76666667
0.73333333 0.6 0.73333333
0.76666667 0.63333333 0.76666667
0.8 0.6 0.73333333
0.83333333 0.63333333 0.76666667
0.86666667 0.6 0.73333333
0.9 0.63333333 0.76666667
0.93333333 0.6 0.73333333
0.96666667 0.63333333 0.76666667
-0 0.66666667 0.73333333
0.03333333 0.7 0.76666667
0.06666667 0.66666667 0.73333333
0.1 0.7 0.76666667
0.13333333 0.66666667 0.73333333
0.16666667 0.7 0.76666667
0.2 0.66666667 0.73333333
0.23333333 0.7 0.76666667
0.26666667 0.66666667 0.73333333
0.3 0.7 0.76666667
0.33333333 0.66666667 0.73333333
0.36666667 0.7 0.76666667
0.4 0.66666667 0.73333333
0.43333333 0.7 0.76666667
0.46666667 0.66666667 0.73333333
0.5 0.7 0.76666667
0.53333333 0.66666667 0.73333333
0.56666667 0.7 0.76666667
0.6 0.66666667 0.73333333
0.63333333 0.7 0.76666667
0.66666667 0.66666667 0.73333333
0.7 0.7 0.76666667
0.73333333 0.66666667 0.73333333
0.76666667 0.7 0.76666667
0.8 0.66666667 0.73333333
0.83333333 0.7 0.76666667
0.86666667 0.66666667 0.73333333
0.9 0.7 0.76666667
0.93333333 0.66666667 0.73333333
0.96666667 0.7 0.76666667
-0 0.73333333 0.73333333
0.03333333 0.76666667 0.76666667
0.06666667 0.73333333 0.73333333
0.1 0.76666667 0.76666667
0.13333333 0.73333333 0.73333333
0.16666667 0.76666667 0.76666667
0.2 0.73333333 0.73333333
0.23333333 0.76666667 0.76666667
0.26666667 0.73333333 0.73333333
0.3 0.76666667 0.76666667
0.33333333 0.73333333 0.73333333
0.36666667 0.76666667 0.76666667
0.4 0.73333333 0.73333333
0.43333333 0.76666667 0.76666667
0.46666667 0.73333333 0.73333333
0.5 0.76666667 0.76666667
0.53333333 0.73333333 0.73333333
0.56666667 0.76666667 0.76666667
0.6 0.73333333 0.73333333
0.63333333 0.76666667 0.76666667
0.66666667 0.73333333 0.73333333
0.7 0.76666667 0.76666667
0.73333333 0.73333333 0.73333333
0.76666667 0.76666667 0.76666667
0.8 0.73333333 0.73333333
0.83333333 0.76666667 0.76666667
0.86666667 0.73333333 0.73333333
0.9 0.76666667 0.76666667
0.93333333 0.73333333 0.73333333
0.96666667 0.76666667 0.76666667
-0 0.8 0.73333333
0.03333333 0.83333333 0.76666667
0.06666667 0.8 0.73333333
0.1 0.83333333 0.76666667
0.13333333 0.8 0.73333333
0.16666667 0.83333333 0.76666667
0.2 0.8 0.73333333
0.23333333 0.83333333 0.76666667
0.26666667 0.8 0.73333333
0.3 0.83333333 0.76666667
0.33333333 0.8 0.73333333
0.36666667 0.83333333 0.76666667
0.4 0.8 0.73333333
0.43333333 0.83333333 0.76666667
0.46666667 0.8 0.73333333
0.5 0.83333333 0.76666667
0.53333333 0.8 0.73333333
0.56666667 0.83333333 0.76666667
0.6 0.8 0.73333333
0.63333333 0.83333333 0.76666667
0.66666667 0.8 0.73333333
0.7 0.83333333 0.76666667
0.73333333 0.8 0.73333333
0.76666667 0.83333333 0.76666667
0.8 0.8 0.73333333
0.83333333 0.83333333 0.76666667
0.86666667 0.8 0.73333333
0.9 0.83333333 0.76666667
0.93333333 0.8 0.73333333
0.96666667 0.83333333 0.76666667
-0 0.86666667 0.73333333
0.03333333 0.9 0.76666667
0.06666667 0.86666667 0.73333333
0.1 0.9 0.76666667
0.13333333 0.86666667 0.73333333
0.16666667 0.9 0.76666667
0.2 0.86666667 0.73333333
0.23333333 0.9 0.76666667
0.26666667 0.86666667 0.73333333
0.3 0.9 0.76666667
0.33333333 0.86666667 0.73333333
0.36666667 0.9 0.76666667
0.4 0.86666667 0.73333333
0.43333333 0.9 0.76666667
0.46666667 0.86666667 0.73333333
0.5 0.9 0.76666667
0.53333333 0.86666667 0.73333333
0.56666667 0.9 0.76666667
0.6 0.86666667 0.73333333
0.63333333 0.9 0.76666667
0.66666667 0.86666667 0.73333333
0.7 0.9 0.76666667
0.73333333 0.86666667 0.73333333
0.76666667 0.9 0.76666667
0.8 0.86666667 0.73333333
0.83333333 0.9 0.76666667
0.86666667 0.86666667 0.73333333
0.9 0.9 0.76666667
0.93333333 0.86666667 0.73333333
0.96666667 0.9 0.76666667
-0 0.93333333 0.73333333
0.03333333 0.96666667 0.76666667
0.06666667 0.93333333 0.73333333
0.1 0.96666667 0.76666667
0.13333333 0.93333333 0.73333333
0.16666667 0.96666667 0.76666667
0.2 0.93333333 0.73333333
0.23333333 0.96666667 0.76666667
0.26666667 0.93333333 0.73333333
0.3 0.96666667 0.76666667
0.33333333 0.93333333 0.73333333
0.36666667 0.96666667 0.76666667
0.4 0.93333333 0.73333333
0.43333333 0.96666667 0.76666667
0.46666667 0.93333333 0.73333333
0.5 0.96666667 0.76666667
0.53333333 0.93333333 0.73333333
0.56666667 0.96666667 0.76666667
0.6 0.93333333 0.73333333
0.63333333 0.96666667 0.76666667
0.66666667 0.93333333 0.73333333
0.7 0.96666667 0.76666667
0.73333333 0.93333333 0.73333333
0.76666667 0.96666667 0.76666667
0.8 0.93333333 0.73333333
0.83333333 0.96666667 0.76666667
0.86666667 0.93333333 0.73333333
0.9 0.96666667 0.76666667
0.93333333 0.93333333 0.73333333
0.96666667 0.96666667 0.76666667
-0 -0 0.8
0.03333333 0.03333333 0.83333333
0.06666667 -0 0.8
0.1 0.03333333 0.83333333
0.13333333 -0 0.8
0.16666667 0.03333333 0.83333333
0.2 -0 0.8
0.23333333 0.03333333 0.83333333
0.26666667 -0 0.8
0.3 0.03333333 0.83333333
0.33333333 -0 0.8
0.36666667 0.03333333 0.83333333
0.4 -0 0.8
0.43333333 0.03333333 0.83333333
0.46666667 -0 0.8
0.5 0.03333333 0.83333333
0.53333333 -0 0.8
0.56666667 0.03333333 0.83333333
0.6 -0 0.8
0.63333333 0.03333333 0.83333333
0.66666667 -0 0.8
0.7 0.03333333 0.83333333
0.73333333 -0 0.8
0.76666667 0.03333333 0.83333333
0.8 -0 0.8
0.83333333 0.03333333 0.83333333
0.86666667 -0 0.8
0.9 0.03333333 0.83333333
0.93333333 -0 0.8
0.96666667 0.03333333 0.83333333
-0 0.06666667 0.8
0.03333333 0.1 0.83333333
0.06666667 0.06666667 0.8
0.1 0.1 0.83333333
0.13333333 0.06666667 0.8
0.16666667 0.1 0.83333333
0.2 0.06666667 0.8
0.23333333 0.1 0.83333333
0.26666667 0.06666667 0.8
0.3 0.1 0.83333333
0.33333333 0.06666667 0.8
0.36666667 0.1 0.83333333
0.4 0.06666667 0.8
0.43333333 0.1 0.83333333
0.46666667 0.06666667 0.8
0.5 0.1 0.83333333
0.53333333 0.06666667 0.8
0.56666667 0.1 0.83333333
0.6 0.06666667 0.8
0.63333333 0.1 0.83333333
0.66666667 0.06666667 0.8
0.7 0.1 0.83333333
0.73333333 0.06666667 0.8
0.76666667 0.1 0.83333333
0.8 0.06666667 0.8
0.83333333 0.1 0.83333333
0.86666667 0.06666667 0.8
0.9 0.1 0.83333333
0.93333333 0.06666667 0.8
0.96666667 0.1 0.83333333
-0 0.13333333 0.8
0.03333333 0.16666667 0.83333333
0.06666667 0.13333333 0.8
0.1 0.16666667 0.83333333
0.13333333 0.13333333 0.8
0.16666667 0.16666667 0.83333333
0.2 0.13333333 0.8
0.23333333 0.16666667 0.83333333
0.26666667 0.13333333 0.8
0.3 0.16666667 0.83333333
0.33333333 0.13333333 0.8
0.36666667 0.16666667 0.83333333
0.4 0.13333333 0.8
0.43333333 0.16666667 0.83333333
0.46666667 0.13333333 0.8
0.5 0.16666667 0.83333333
0.53333333 0.13333333 0.8
0.56666667 0.16666667 0.83333333
0.6 0.13333333 0.8
0.63333333 0.16666667 0.83333333
0.66666667 0.13333333 0.8
0.7 0.16666667 0.83333333
0.73333333 0.13333333 0.8
0.76666667 0.16666667 0.83333333
0.8 0.13333333 0.8
0.83333333 0.16666667 0.83333333
0.86666667 0.13333333 0.8
0.9 0.16666667 0.83333333
0.93333333 0.13333333 0.8
0.96666667 0.16666667 0.83333333
-0 0.2 0.8
0.03333333 0.23333333 0.83333333
0.06666667 0.2 0.8
0.1 0.23333333 0.83333333
0.13333333 0.2 0.8
0.16666667 0.23333333 0.83333333
0.2 0.2 0.8
0.23333333 0.23333333 0.83333333
0.26666667 0.2 0.8
0.3 0.23333333 0.83333333
0.33333333 0.2 0.8
0.36666667 0.23333333 0.83333333
0.4 0.2 0.8
0.43333333 0.23333333 0.83333333
0.46666667 0.2 0.8
0.5 0.23333333 0.83333333
0.53333333 0.2 0.8
0.56666667 0.23333333 0.83333333
0.6 0.2 0.8
0.63333333 0.23333333 0.83333333
0.66666667 0.2 0.8
0.7 0.23333333 0.83333333
0.73333333 0.2 0.8
0.76666667 0.23333333 0.83333333
0.8 0.2 0.8
0.83333333 0.23333333 0.83333333
0.86666667 0.2 0.8
0.9 0.23333333 0.83333333
0.93333333 0.2 0.8
0.96666667 0.23333333 0.83333333
-0 0.26666667 0.8
0.03333333 0.3 0.83333333
0.06666667 0.26666667 0.8
0.1 0.3 0.83333333
0.13333333 0.26666667 0.8
0.16666667 0.3 0.83333333
0.2 0.26666667 0.8
0.23333333 0.3 0.83333333
0.26666667 0.26666667 0.8
0.3 0.3 0.83333333
0.33333333 0.26666667 0.8
0.36666667 0.3 0.83333333
0.4 0.26666667 0.8
0.43333333 0.3 0.83333333
0.46666667 0.26666667 0.8
0.5 0.3 0.83333333
0.53333333 0.26666667 0.8
0.56666667 0.3 0.83333333
0.6 0.26666667 0.8
0.63333333 0.3 0.83333333
0.66666667 0.26666667 0.8
0.7 0.3 0.83333333
0.73333333 0.26666667 0.8
0.76666667 0.3 0.83333333
0.8 0.26666667 0.8
0.83333333 0.3 0.83333333
0.86666667 0.26666667 0.8
0.9 0.3 0.83333333
0.93333333 0.26666667 0.8
0.96666667 0.3 0.83333333
-0 0.33333333 0.8
0.03333333 0.36666667 0.83333333
0.06666667 0.33333333 0.8
0.1 0.36666667 0.83333333
0.13333333 0.33333333 0.8
0.16666667 0.36666667 0.83333333
0.2 0.33333333 0.8
0.23333333 0.36666667 0.83333333
0.26666667 0.33333333 0.8
0.3 0.36666667 0.83333333
0.33333333 0.33333333 0.8
0.36666667 0.36666667 0.83333333
0.4 0.33333333 0.8
0.43333333 0.36666667 0.83333333
0.46666667 0.33333333 0.8
0.5 0.36666667 0.83333333
0.53333333 0.33333333 0.8
0.56666667 0.36666667 0.83333333
0.6 0.33333333 0.8
0.63333333 0.36666667 0.83333333
0.66666667 0.33333333 0.8
0.7 0.36666667 0.83333333
0.73333333 0.33333333 0.8
0.76666667 0.36666667 0.83333333
0.8 0.33333333 0.8
0.83333333 0.36666667 0.83333333
0.86666667 0.33333333 0.8
0.9 0.36666667 0.83333333
0.93333333 0.33333333 0.8
0.96666667 0.36666667 0.83333333
-0 0.4 0.8
0.03333333 0.43333333 0.83333333
0.06666667 0.4 0.8
0.1 0.43333333 0.83333333
0.13333333 0.4 0.8
0.16666667 0.43333333 0.83333333
0.2 0.4 0.8
0.23333333 0.43333333 0.83333333
0.26666667 0.4 0.8
0.3 0.43333333 0.83333333
0.33333333 0.4 0.8
0.36666667 0.43333333 0.83333333
0.4 0.4 0.8
0.43333333 0.43333333 0.83333333
0.46666667 0.4 0.8
0.5 0.43333333 0.83333333
0.53333333 0.4 0.8
0.56666667 0.43333333 0.83333333
0.6 0.4 0.8
0.63333333 0.43333333 0.83333333
0.66666667 0.4 0.8
0.7 0.43333333 0.83333333
0.73333333 0.4 0.8
0.76666667 0.43333333 0.83333333
0.8 0.4 0.8
0.83333333 0.43333333 0.83333333
0.86666667 0.4 0.8
0.9 0.43333333 0.83333333
0.93333333 0.4 0.8
0.96666667 0.43333333 0.83333333
-0 0.46666667 0.8
0.03333333 0.5 0.83333333
0.06666667 0.46666667 0.8
0.1 0.5 0.83333333
0.13333333 0.46666667 0.8
0.16666667 0.5 0.83333333
0.2 0.46666667 0.8
0.23333333 0.5 0.83333333
0.26666667 0.46666667 0.8
0.3 0.5 0.83333333
0.33333333 0.46666667 0.8
0.36666667 0.5 0.83333333
0.4 0.46666667 0.8
0.43333333 0.5 0.83333333
0.46666667 0.46666667 0.8
0.5 0.5 0.83333333
0.53333333 0.46666667 0.8
0.56666667 0.5 0.83333333
0.6 0.46666667 0.8
0.63333333 0.5 0.83333333
0.66666667 0.46666667 0.8
0.7 0.5 0.83333333
0.73333333 0.46666667 0.8
0.76666667 0.5 0.83333333
0.8 0.46666667 0.8
0.83333333 0.5 0.83333333
0.86666667 0.46666667 0.8
0.9 0.5 0.83333333
0.93333333 0.46666667 0.8
0.96666667 0.5 0.83333333
-0 0.53333333 0.8
0.03333333 0.56666667 0.83333333
0.06666667 0.53333333 0.8
0.1 0.56666667 0.83333333
0.13333333 0.53333333 0.8
0.16666667 0.56666667 0.83333333
0.2 0.53333333 0.8
0.23333333 0.56666667 0.83333333
0.26666667 0.53333333 0.8
0.3 0.56666667 0.83333333
0.33333333 0.53333333 0.8
0.36666667 0.56666667 0.83333333
0.4 0.53333333 0.8
0.43333333 0.56666667 0.83333333
0.46666667 0.53333333 0.8
0.5 0.56666667 0.83333333
0.53333333 0.53333333 0.8
0.56666667 0.56666667 0.83333333
0.6 0.53333333 0.8
0.63333333 0.56666667 0.83333333
0.66666667 0.53333333 0.8
0.7 0.56666667 0.83333333
0.73333333 0.53333333 0.8
0.76666667 0.56666667 0.83333333
0.8 0.53333333 0.8
0.83333333 0.56666667 0.83333333
0.86666667 0.53333333 0.8
0.9 0.56666667 0.83333333
0.93333333 0.53333333 0.8
0.96666667 0.56666667 0.83333333
-0 0.6 0.8
0.03333333 0.63333333 0.83333333
0.06666667 0.6 0.8
0.1 0.63333333 0.83333333
0.13333333 0.6 0.8
0.16666667 0.63333333 0.83333333
0.2 0.6 0.8
0.23333333 0.63333333 0.83333333
0.26666667 0.6 0.8
0.3 0.63333333 0.83333333
0.33333333 0.6 0.8
0.36666667 0.63333333 0.83333333
0.4 0.6 0.8
0.43333333 0.63333333 0.83333333
0.46666667 0.6 0.8
0.5 0.63333333 0.83333333
0.53333333 0.6 0.8
0.56666667 0.63333333 0.83333333
0.6 0.6 0.8
0.63333333 0.63333333 0.83333333
0.66666667 0.6 0.8
0.7 0.63333333 0.83333333
0.73333333 0.6 0.8
0.76666667 0.63333333 0.83333333
0.8 0.6 0.8
0.83333333 0.63333333 0.83333333
0.86666667 0.6 0.8
0.9 0.63333333 0.83333333
0.93333333 0.6 0.8
0.96666667 0.63333333 0.83333333
-0 0.66666667 0.8
0.03333333 0.7 0.83333333
0.06666667 0.66666667 0.8
0.1 0.7 0.83333333
0.13333333 0.66666667 0.8
0.16666667 0.7 0.83333333
0.2 0.66666667 0.8
0.23333333 0.7 0.83333333
0.26666667 0.66666667 0.8
0.3 0.7 0.83333333
0.33333333 0.66666667 0.8
0.36666667 0.7 0.83333333
0.4 0.66666667 0.8
0.43333333 0.7 0.83333333
0.46666667 0.66666667 0.8
0.5 0.7 0.83333333
0.53333333 0.66666667 0.8
0.56666667 0.7 0.83333333
0.6 0.66666667 0.8
0.63333333 0.7 0.83333333
0.66666667 0.66666667 0.8
0.7 0.7 0.83333333
0.73333333 0.66666667 0.8
0.76666667 0.7 0.83333333
0.8 0.66666667 0.8
0.83333333 0.7 0.83333333
0.86666667 0.66666667 0.8
0.9 0.7 0.83333333
0.93333333 0.66666667 0.8
0.96666667 0.7 0.83333333
-0 0.73333333 0.8
0.03333333 0.76666667 0.83333333
0.06666667 0.73333333 0.8
0.1 0.76666667 0.83333333
0.13333333 0.73333333 0.8
0.16666667 0.76666667 0.83333333
0.2 0.73333333 0.8
0.23333333 0.76666667 0.83333333
0.26666667 0.73333333 0.8
0.3 0.76666667 0.83333333
0.33333333 0.73333333 0.8
0.36666667 0.76666667 0.83333333
0.4 0.73333333 0.8
0.43333333 0.76666667 0.83333333
0.46666667 0.73333333 0.8
0.5 0.76666667 0.83333333
0.53333333 0.73333333 0.8
0.56666667 0.76666667 0.83333333
0.6 0.73333333 0.8
0.63333333 0.76666667 0.83333333
0.66666667 0.73333333 0.8
0.7 0.76666667 0.83333333
0.73333333 0.73333333 0.8
0.76666667 0.76666667 0.83333333
0.8 0.73333333 0.8
0.83333333 0.76666667 0.83333333
0.86666667 0.73333333 0.8
0.9 0.76666667 0.83333333
0.93333333 0.73333333 0.8
0.96666667 0.76666667 0.83333333
-0 0.8 0.8
0.03333333 0.83333333 0.83333333
0.06666667 0.8 0.8
0.1 0.83333333 0.83333333
0.13333333 0.8 0.8
0.16666667 0.83333333 0.83333333
0.2 0.8 0.8
0.23333333 0.83333333 0.83333333
0.26666667 0.8 0.8
0.3 0.83333333 0.83333333
0.33333333 0.8 0.8
0.36666667 0.83333333 0.83333333
0.4 0.8 0.8
0.43333333 0.83333333 0.83333333
0.46666667 0.8 0.8
0.5 0.83333333 0.83333333
0.53333333 0.8 0.8
0.56666667 0.83333333 0.83333333
0.6 0.8 0.8
0.63333333 0.83333333 0.83333333
0.66666667 0.8 0.8
0.7 0.83333333 0.83333333
0.73333333 0.8 0.8
0.76666667 0.83333333 0.83333333
0.8 0.8 0.8
0.83333333 0.83333333 0.83333333
0.86666667 0.8 0.8
0.9 0.83333333 0.83333333
0.93333333 0.8 0.8
0.96666667 0.83333333 0.83333333
-0 0.86666667 0.8
0.03333333 0.9 0.83333333
0.06666667 0.86666667 0.8
0.1 0.9 0.83333333
0.13333333 0.86666667 0.8
0.16666667 0.9 0.83333333
0.2 0.86666667 0.8
0.23333333 0.9 0.83333333
0.26666667 0.86666667 0.8
0.3 0.9 0.83333333
0.33333333 0.86666667 0.8
0.36666667 0.9 0.83333333
0.4 0.86666667 0.8
0.43333333 0.9 0.83333333
0.46666667 0.86666667 0.8
0.5 0.9 0.83333333
0.53333333 0.86666667 0.8
0.56666667 0.9 0.83333333
0.6 0.86666667 0.8
0.63333333 0.9 0.83333333
0.66666667 0.86666667 0.8
0.7 0.9 0.83333333
0.73333333 0.86666667 0.8
0.76666667 0.9 0.83333333
0.8 0.86666667 0.8
0.83333333 0.9 0.83333333
0.86666667 0.86666667 0.8
0.9 0.9 0.83333333
0.93333333 0.86666667 0.8
0.96666667 0.9 0.83333333
-0 0.93333333 0.8
0.03333333 0.96666667 0.83333333
0.06666667 0.93333333 0.8
0.1 0.96666667 0.83333333
0.13333333 0.93333333 0.8
0.16666667 0.96666667 0.83333333
0.2 0.93333333 0.8
0.23333333 0.96666667 0.83333333
0.26666667 0.93333333 0.8
0.3 0.96666667 0.83333333
0.33333333 0.93333333 0.8
0.36666667 0.96666667 0.83333333
0.4 0.93333333 0.8
0.43333333 0.96666667 0.83333333
0.46666667 0.93333333 0.8
0.5 0.96666667 0.83333333
0.53333333 0.93333333 0.8
0.56666667 0.96666667 0.83333333
0.6 0.93333333 0.8
0.63333333 0.96666667 0.83333333
0.66666667 0.93333333 0.8
0.7 0.96666667 0.83333333
0.73333333 0.93333333 0.8
0.76666667 0.96666667 0.83333333
0.8 0.93333333 0.8
0.83333333 0.96666667 0.83333333
0.86666667 0.93333333 0.8
0.9 0.96666667 0.83333333
0.93333333 0.93333333 0.8
0.96666667 0.96666667 0.83333333
-0 -0 0.86666667
0.03333333 0.03333333 0.9
0.06666667 -0 0.86666667
0.1 0.03333333 0.9
0.13333333 -0 0.86666667
0.16666667 0.03333333 0.9
0.2 -0 0.86666667
0.23333333 0.03333333 0.9
0.26666667 -0 0.86666667
0.3 0.03333333 0.9
0.33333333 -0 0.86666667
0.36666667 0.03333333 0.9
0.4 -0 0.86666667
0.43333333 0.03333333 0.9
0.46666667 -0 0.86666667
0.5 0.03333333 0.9
0.53333333 -0 0.86666667
0.56666667 0.03333333 0.9
0.6 -0 0.86666667
0.63333333 0.03333333 0.9
0.66666667 -0 0.86666667
0.7 0.03333333 0.9
0.73333333 -0 0.86666667
0.76666667 0.03333333 0.9
0.8 -0 0.86666667
0.83333333 0.03333333 0.9
0.86666667 -0 0.86666667
0.9 0.03333333 0.9
0.93333333 -0 0.86666667
0.96666667 0.03333333 0.9
-0 0.06666667 0.86666667
0.03333333 0.1 0.9
0.06666667 0.06666667 0.86666667
0.1 0.1 0.9
0.13333333 0.06666667 0.86666667
0.16666667 0.1 0.9
0.2 0.06666667 0.86666667
0.23333333 0.1 0.9
0.26666667 0.06666667 0.86666667
0.3 0.1 0.9
0.33333333 0.06666667 0.86666667
0.36666667 0.1 0.9
0.4 0.06666667 0.86666667
0.43333333 0.1 0.9
0.46666667 0.06666667 0.86666667
0.5 0.1 0.9
0.53333333 0.06666667 0.86666667
0.56666667 0.1 0.9
0.6 0.06666667 0.86666667
0.63333333 0.1 0.9
0.66666667 0.06666667 0.86666667
0.7 0.1 0.9
0.73333333 0.06666667 0.86666667
0.76666667 0.1 0.9
0.8 0.06666667 0.86666667
0.83333333 0.1 0.9
0.86666667 0.06666667 0.86666667
0.9 0.1 0.9
0.93333333 0.06666667 0.86666667
0.96666667 0.1 0.9
-0 0.13333333 0.86666667
0.03333333 0.16666667 0.9
0.06666667 0.13333333 0.86666667
0.1 0.16666667 0.9
0.13333333 0.13333333 0.86666667
0.16666667 0.16666667 0.9
0.2 0.13333333 0.86666667
0.23333333 0.16666667 0.9
0.26666667 0.13333333 0.86666667
0.3 0.16666667 0.9
0.33333333 0.13333333 0.86666667
0.36666667 0.16666667 0.9
0.4 0.13333333 0.86666667
0.43333333 0.16666667 0.9
0.46666667 0.13333333 0.86666667
0.5 0.16666667 0.9
0.53333333 0.13333333 0.86666667
0.56666667 0.16666667 0.9
0.6 0.13333333 0.86666667
0.63333333 0.16666667 0.9
0.66666667 0.13333333 0.86666667
0.7 0.16666667 0.9
0.73333333 0.13333333 0.86666667
0.76666667 0.16666667 0.9
0.8 0.13333333 0.86666667
0.83333333 0.16666667 0.9
0.86666667 0.13333333 0.86666667
0.9 0.16666667 0.9
0.93333333 0.13333333 0.86666667
0.96666667 0.16666667 0.9
-0 0.2 0.86666667
0.03333333 0.23333333 0.9
0.06666667 0.2 0.86666667
0.1 0.23333333 0.9
0.13333333 0.2 0.86666667
0.16666667 0.23333333 0.9
0.2 0.2 0.86666667
0.23333333 0.23333333 0.9
0.26666667 0.2 0.86666667
0.3 0.23333333 0.9
0.33333333 0.2 0.86666667
0.36666667 0.23333333 0.9
0.4 0.2 0.86666667
0.43333333 0.23333333 0.9
0.46666667 0.2 0.86666667
0.5 0.23333333 0.9
0.53333333 0.2 0.86666667
0.56666667 0.23333333 0.9
0.6 0.2 0.86666667
0.63333333 0.23333333 0.9
0.66666667 0.2 0.86666667
0.7 0.23333333 0.9
0.73333333 0.2 0.86666667
0.76666667 0.23333333 0.9
0.8 0.2 0.86666667
0.83333333 0.23333333 0.9
0.86666667 0.2 0.86666667
0.9 0.23333333 0.9
0.93333333 0.2 0.86666667
0.96666667 0.23333333 0.9
-0 0.26666667 0.86666667
0.03333333 0.3 0.9
0.06666667 0.26666667 0.86666667
0.1 0.3 0.9
0.13333333 0.26666667 0.86666667
0.16666667 0.3 0.9
0.2 0.26666667 0.86666667
0.23333333 0.3 0.9
0.26666667 0.26666667 0.86666667
0.3 0.3 0.9
0.33333333 0.26666667 0.86666667
0.36666667 0.3 0.9
0.4 0.26666667 0.86666667
0.43333333 0.3 0.9
0.46666667 0.26666667 0.86666667
0.5 0.3 0.9
0.53333333 0.26666667 0.86666667
0.56666667 0.3 0.9
0.6 0.26666667 0.86666667
0.63333333 0.3 0.9
0.66666667 0.26666667 0.86666667
0.7 0.3 0.9
0.73333333 0.26666667 0.86666667
0.76666667 0.3 0.9
0.8 0.26666667 0.86666667
0.83333333 0.3 0.9
0.86666667 0.26666667 0.86666667
0.9 0.3 0.9
0.93333333 0.26666667 0.86666667
0.96666667 0.3 0.9
-0 0.33333333 0.86666667
0.03333333 0.36666667 0.9
0.06666667 0.33333333 0.86666667
0.1 0.36666667 0.9
0.13333333 0.33333333 0.86666667
0.16666667 0.36666667 0.9
0.2 0.33333333 0.86666667
0.23333333 0.36666667 0.9
0.26666667 0.33333333 0.86666667
0.3 0.36666667 0.9
0.33333333 0.33333333 0.86666667
0.36666667 0.36666667 0.9
0.4 0.33333333 0.86666667
0.43333333 0.36666667 0.9
0.46666667 0.33333333 0.86666667
0.5 0.36666667 0.9
0.53333333 0.33333333 0.86666667
0.56666667 0.36666667 0.9
0.6 0.33333333 0.86666667
0.63333333 0.36666667 0.9
0.66666667 0.33333333 0.86666667
0.7 0.36666667 0.9
0.73333333 0.33333333 0.86666667
0.76666667 0.36666667 0.9
0.8 0.33333333 0.86666667
0.83333333 0.36666667 0.9
0.86666667 0.33333333 0.86666667
0.9 0.36666667 0.9
0.93333333 0.33333333 0.86666667
0.96666667 0.36666667 0.9
-0 0.4 0.86666667
0.03333333 0.43333333 0.9
0.06666667 0.4 0.86666667
0.1 0.43333333 0.9
0.13333333 0.4 0.86666667
0.16666667 0.43333333 0.9
0.2 0.4 0.86666667
0.23333333 0.43333333 0.9
0.26666667 0.4 0.86666667
0.3 0.43333333 0.9
0.33333333 0.4 0.86666667
0.36666667 0.43333333 0.9
0.4 0.4 0.86666667
0.43333333 0.43333333 0.9
0.46666667 0.4 0.86666667
0.5 0.43333333 0.9
0.53333333 0.4 0.86666667
0.56666667 0.43333333 0.9
0.6 0.4 0.86666667
0.63333333 0.43333333 0.9
0.66666667 0.4 0.86666667
0.7 0.43333333 0.9
0.73333333 0.4 0.86666667
0.76666667 0.43333333 0.9
0.8 0.4 0.86666667
0.83333333 0.43333333 0.9
0.86666667 0.4 0.86666667
0.9 0.43333333 0.9
0.93333333 0.4 0.86666667
0.96666667 0.43333333 0.9
-0 0.46666667 0.86666667
0.03333333 0.5 0.9
0.06666667 0.46666667 0.86666667
0.1 0.5 0.9
0.13333333 0.46666667 0.86666667
0.16666667 0.5 0.9
0.2 0.46666667 0.86666667
0.23333333 0.5 0.9
0.26666667 0.46666667 0.86666667
0.3 0.5 0.9
0.33333333 0.46666667 0.86666667
0.36666667 0.5 0.9
0.4 0.46666667 0.86666667
0.43333333 0.5 0.9
0.46666667 0.46666667 0.86666667
0.5 0.5 0.9
0.53333333 0.46666667 0.86666667
0.56666667 0.5 0.9
0.6 0.46666667 0.86666667
0.63333333 0.5 0.9
0.66666667 0.46666667 0.86666667
0.7 0.5 0.9
0.73333333 0.46666667 0.86666667
0.76666667 0.5 0.9
0.8 0.46666667 0.86666667
0.83333333 0.5 0.9
0.86666667 0.46666667 0.86666667
0.9 0.5 0.9
0.93333333 0.46666667 0.86666667
0.96666667 0.5 0.9
-0 0.53333333 0.86666667
0.03333333 0.56666667 0.9
0.06666667 0.53333333 0.86666667
0.1 0.56666667 0.9
0.13333333 0.53333333 0.86666667
0.16666667 0.56666667 0.9
0.2 0.53333333 0.86666667
0.23333333 0.56666667 0.9
0.26666667 0.53333333 0.86666667
0.3 0.56666667 0.9
0.33333333 0.53333333 0.86666667
0.36666667 0.56666667 0.9
0.4 0.53333333 0.86666667
0.43333333 0.56666667 0.9
0.46666667 0.53333333 0.86666667
0.5 0.56666667 0.9
0.53333333 0.53333333 0.86666667
0.56666667 0.56666667 0.9
0.6 0.53333333 0.86666667
0.63333333 0.56666667 0.9
0.66666667 0.53333333 0.86666667
0.7 0.56666667 0.9
0.73333333 0.53333333 0.86666667
0.76666667 0.56666667 0.9
0.8 0.53333333 0.86666667
0.83333333 0.56666667 0.9
0.86666667 0.53333333 0.86666667
0.9 0.56666667 0.9
0.93333333 0.53333333 0.86666667
0.96666667 0.56666667 0.9
-0 0.6 0.86666667
0.03333333 0.63333333 0.9
0.06666667 0.6 0.86666667
0.1 0.63333333 0.9
0.13333333 0.6 0.86666667
0.16666667 0.63333333 0.9
0.2 0.6 0.86666667
0.23333333 0.63333333 0.9
0.26666667 0.6 0.86666667
0.3 0.63333333 0.9
0.33333333 0.6 0.86666667
0.36666667 0.63333333 0.9
0.4 0.6 0.86666667
0.43333333 0.63333333 0.9
0.46666667 0.6 0.86666667
0.5 0.63333333 0.9
0.53333333 0.6 0.86666667
0.56666667 0.63333333 0.9
0.6 0.6 0.86666667
0.63333333 0.63333333 0.9
0.66666667 0.6 0.86666667
0.7 0.63333333 0.9
0.73333333 0.6 0.86666667
0.76666667 0.63333333 0.9
0.8 0.6 0.86666667
0.83333333 0.63333333 0.9
0.86666667 0.6 0.86666667
0.9 0.63333333 0.9
0.93333333 0.6 0.86666667
0.96666667 0.63333333 0.9
-0 0.66666667 0.86666667
0.03333333 0.7 0.9
0.06666667 0.66666667 0.86666667
0.1 0.7 0.9
0.13333333 0.66666667 0.86666667
0.16666667 0.7 0.9
0.2 0.66666667 0.86666667
0.23333333 0.7 0.9
0.26666667 0.66666667 0.86666667
0.3 0.7 0.9
0.33333333 0.66666667 0.86666667
0.36666667 0.7 0.9
0.4 0.66666667 0.86666667
0.43333333 0.7 0.9
0.46666667 0.66666667 0.86666667
0.5 0.7 0.9
0.53333333 0.66666667 0.86666667
0.56666667 0.7 0.9
0.6 0.66666667 0.86666667
0.63333333 0.7 0.9
0.66666667 0.66666667 0.86666667
0.7 0.7 0.9
0.73333333 0.66666667 0.86666667
0.76666667 0.7 0.9
0.8 0.66666667 0.86666667
0.83333333 0.7 0.9
0.86666667 0.66666667 0.86666667
0.9 0.7 0.9
0.93333333 0.66666667 0.86666667
0.96666667 0.7 0.9
-0 0.73333333 0.86666667
0.03333333 0.76666667 0.9
0.06666667 0.73333333 0.86666667
0.1 0.76666667 0.9
0.13333333 0.73333333 0.86666667
0.16666667 0.76666667 0.9
0.2 0.73333333 0.86666667
0.23333333 0.76666667 0.9
0.26666667 0.73333333 0.86666667
0.3 0.76666667 0.9
0.33333333 0.73333333 0.86666667
0.36666667 0.76666667 0.9
0.4 0.73333333 0.86666667
0.43333333 0.76666667 0.9
0.46666667 0.73333333 0.86666667
0.5 0.76666667 0.9
0.53333333 0.73333333 0.86666667
0.56666667 0.76666667 0.9
0.6 0.73333333 0.86666667
0.63333333 0.76666667 0.9
0.66666667 0.73333333 0.86666667
0.7 0.76666667 0.9
0.73333333 0.73333333 0.86666667
0.76666667 0.76666667 0.9
0.8 0.73333333 0.86666667
0.83333333 0.76666667 0.9
0.86666667 0.73333333 0.86666667
0.9 0.76666667 0.9
0.93333333 0.73333333 0.86666667
0.96666667 0.76666667 0.9
-0 0.8 0.86666667
0.03333333 0.83333333 0.9
0.06666667 0.8 0.86666667
0.1 0.83333333 0.9
0.13333333 0.8 0.86666667
0.16666667 0.83333333 0.9
0.2 0.8 0.86666667
0.23333333 0.83333333 0.9
0.26666667 0.8 0.86666667
0.3 0.83333333 0.9
0.33333333 0.8 0.86666667
0.36666667 0.83333333 0.9
0.4 0.8 0.86666667
0.43333333 0.83333333 0.9
0.46666667 0.8 0.86666667
0.5 0.83333333 0.9
0.53333333 0.8 0.86666667
0.56666667 0.83333333 0.9
0.6 0.8 0.86666667
0.63333333 0.83333333 0.9
0.66666667 0.8 0.86666667
0.7 0.83333333 0.9
0.73333333 0.8 0.86666667
0.76666667 0.83333333 0.9
0.8 0.8 0.86666667
0.83333333 0.83333333 0.9
0.86666667 0.8 0.86666667
0.9 0.83333333 0.9
0.93333333 0.8 0.86666667
0.96666667 0.83333333 0.9
-0 0.86666667 0.86666667
0.03333333 0.9 0.9
0.06666667 0.86666667 0.86666667
0.1 0.9 0.9
0.13333333 0.86666667 0.86666667
0.16666667 0.9 0.9
0.2 0.86666667 0.86666667
0.23333333 0.9 0.9
0.26666667 0.86666667 0.86666667
0.3 0.9 0.9
0.33333333 0.86666667 0.86666667
0.36666667 0.9 0.9
0.4 0.86666667 0.86666667
0.43333333 0.9 0.9
0.46666667 0.86666667 0.86666667
0.5 0.9 0.9
0.53333333 0.86666667 0.86666667
0.56666667 0.9 0.9
0.6 0.86666667 0.86666667
0.63333333 0.9 0.9
0.66666667 0.86666667 0.86666667
0.7 0.9 0.9
0.73333333 0.86666667 0.86666667
0.76666667 0.9 0.9
0.8 0.86666667 0.86666667
0.83333333 0.9 0.9
0.86666667 0.86666667 0.86666667
0.9 0.9 0.9
0.93333333 0.86666667 0.86666667
0.96666667 0.9 0.9
-0 0.93333333 0.86666667
0.03333333 0.96666667 0.9
0.06666667 0.93333333 0.86666667
0.1 0.96666667 0.9
0.13333333 0.93333333 0.86666667
0.16666667 0.96666667 0.9
0.2 0.93333333 0.86666667
0.23333333 0.96666667 0.9
0.26666667 0.93333333 0.86666667
0.3 0.96666667 0.9
0.33333333 0.93333333 0.86666667
0.36666667 0.96666667 0.9
0.4 0.93333333 0.86666667
0.43333333 0.96666667 0.9
0.46666667 0.93333333 0.86666667
0.5 0.96666667 0.9
0.53333333 0.93333333 0.86666667
0.56666667 0.96666667 0.9
0.6 0.93333333 0.86666667
0.63333333 0.96666667 0.9
0.66666667 0.93333333 0.86666667
0.7 0.96666667 0.9
0.73333333 0.93333333 0.86666667
0.76666667 0.96666667 0.9
0.8 0.93333333 0.86666667
0.83333333 0.96666667 0.9
0.86666667 0.93333333 0.86666667
0.9 0.96666667 0.9
0.93333333 0.93333333 0.86666667
0.96666667 0.96666667 0.9
-0 -0 0.93333333
0.03333333 0.03333333 0.96666667
0.06666667 -0 0.93333333
0.1 0.03333333 0.96666667
0.13333333 -0 0.93333333
0.16666667 0.03333333 0.96666667
0.2 -0 0.93333333
0.23333333 0.03333333 0.96666667
0.26666667 -0 0.93333333
0.3 0.03333333 0.96666667
0.33333333 -0 0.93333333
0.36666667 0.03333333 0.96666667
0.4 -0 0.93333333
0.43333333 0.03333333 0.96666667
0.46666667 -0 0.93333333
0.5 0.03333333 0.96666667
0.53333333 -0 0.93333333
0.56666667 0.03333333 0.96666667
0.6 -0 0.93333333
0.63333333 0.03333333 0.96666667
0.66666667 -0 0.93333333
0.7 0.03333333 0.96666667
0.73333333 -0 0.93333333
0.76666667 0.03333333 0.96666667
0.8 -0 0.93333333
0.83333333 0.03333333 0.96666667
0.86666667 -0 0.93333333
0.9 0.03333333 0.96666667
0.93333333 -0 0.93333333
0.96666667 0.03333333 0.96666667
-0 0.06666667 0.93333333
0.03333333 0.1 0.96666667
0.06666667 0.06666667 0.93333333
0.1 0.1 0.96666667
0.13333333 0.06666667 0.93333333
0.16666667 0.1 0.96666667
0.2 0.06666667 0.93333333
0.23333333 0.1 0.96666667
0.26666667 0.06666667 0.93333333
0.3 0.1 0.96666667
0.33333333 0.06666667 0.93333333
0.36666667 0.1 0.96666667
0.4 0.06666667 0.93333333
0.43333333 0.1 0.96666667
0.46666667 0.06666667 0.93333333
0.5 0.1 0.96666667
0.53333333 0.06666667 0.93333333
0.56666667 0.1 0.96666667
0.6 0.06666667 0.93333333
0.63333333 0.1 0.96666667
0.66666667 0.06666667 0.93333333
0.7 0.1 0.96666667
0.73333333 0.06666667 0.93333333
0.76666667 0.1 0.96666667
0.8 0.06666667 0.93333333
0.83333333 0.1 0.96666667
0.86666667 0.06666667 0.93333333
0.9 0.1 0.96666667
0.93333333 0.06666667 0.93333333
0.96666667 0.1 0.96666667
-0 0.13333333 0.93333333
0.03333333 0.16666667 0.96666667
0.06666667 0.13333333 0.93333333
0.1 0.16666667 0.96666667
0.13333333 0.13333333 0.93333333
0.16666667 0.16666667 0.96666667
0.2 0.13333333 0.93333333
0.23333333 0.16666667 0.96666667
0.26666667 0.13333333 0.93333333
0.3 0.16666667 0.96666667
0.33333333 0.13333333 0.93333333
0.36666667 0.16666667 0.96666667
0.4 0.13333333 0.93333333
0.43333333 0.16666667 0.96666667
0.46666667 0.13333333 0.93333333
0.5 0.16666667 0.96666667
0.53333333 0.13333333 0.93333333
0.56666667 0.16666667 0.96666667
0.6 0.13333333 0.93333333
0.63333333 0.16666667 0.96666667
0.66666667 0.13333333 0.93333333
0.7 0.16666667 0.96666667
0.73333333 0.13333333 0.93333333
0.76666667 0.16666667 0.96666667
0.8 0.13333333 0.93333333
0.83333333 0.16666667 0.96666667
0.86666667 0.13333333 0.93333333
0.9 0.16666667 0.96666667
0.93333333 0.13333333 0.93333333
0.96666667 0.16666667 0.96666667
-0 0.2 0.93333333
0.03333333 0.23333333 0.96666667
0.06666667 0.2 0.93333333
0.1 0.23333333 0.96666667
0.13333333 0.2 0.93333333
0.16666667 0.23333333 0.96666667
0.2 0.2 0.93333333
0.23333333 0.23333333 0.96666667
0.26666667 0.2 0.93333333
0.3 0.23333333 0.96666667
0.33333333 0.2 0.93333333
0.36666667 0.23333333 0.96666667
0.4 0.2 0.93333333
0.43333333 0.23333333 0.96666667
0.46666667 0.2 0.93333333
0.5 0.23333333 0.96666667
0.53333333 0.2 0.93333333
0.56666667 0.23333333 0.96666667
0.6 0.2 0.93333333
0.63333333 0.23333333 0.96666667
0.66666667 0.2 0.93333333
0.7 0.23333333 0.96666667
0.73333333 0.2 0.93333333
0.76666667 0.23333333 0.96666667
0.8 0.2 0.93333333
0.83333333 0.23333333 0.96666667
0.86666667 0.2 0.93333333
0.9 0.23333333 0.96666667
0.93333333 0.2 0.93333333
0.96666667 0.23333333 0.96666667
-0 0.26666667 0.93333333
0.03333333 0.3 0.96666667
0.06666667 0.26666667 0.93333333
0.1 0.3 0.96666667
0.13333333 0.26666667 0.93333333
0.16666667 0.3 0.96666667
0.2 0.26666667 0.93333333
0.23333333 0.3 0.96666667
0.26666667 0.26666667 0.93333333
0.3 0.3 0.96666667
0.33333333 0.26666667 0.93333333
0.36666667 0.3 0.96666667
0.4 0.26666667 0.93333333
0.43333333 0.3 0.96666667
0.46666667 0.26666667 0.93333333
0.5 0.3 0.96666667
0.53333333 0.26666667 0.93333333
0.56666667 0.3 0.96666667
0.6 0.26666667 0.93333333
0.63333333 0.3 0.96666667
0.66666667 0.26666667 0.93333333
0.7 0.3 0.96666667
0.73333333 0.26666667 0.93333333
0.76666667 0.3 0.96666667
0.8 0.26666667 0.93333333
0.83333333 0.3 0.96666667
0.86666667 0.26666667 0.93333333
0.9 0.3 0.96666667
0.93333333 0.26666667 0.93333333
0.96666667 0.3 0.96666667
-0 0.33333333 0.93333333
0.03333333 0.36666667 0.96666667
0.06666667 0.33333333 0.93333333
0.1 0.36666667 0.96666667
0.13333333 0.33333333 0.93333333
0.16666667 0.36666667 0.96666667
0.2 0.33333333 0.93333333
0.23333333 0.36666667 0.96666667
0.26666667 0.33333333 0.93333333
0.3 0.36666667 0.96666667
0.33333333 0.33333333 0.93333333
0.36666667 0.36666667 0.96666667
0.4 0.33333333 0.93333333
0.43333333 0.36666667 0.96666667
0.46666667 0.33333333 0.93333333
0.5 0.36666667 0.96666667
0.53333333 0.33333333 0.93333333
0.56666667 0.36666667 0.96666667
0.6 0.33333333 0.93333333
0.63333333 0.36666667 0.96666667
0.66666667 0.33333333 0.93333333
0.7 0.36666667 0.96666667
0.73333333 0.33333333 0.93333333
0.76666667 0.36666667 0.96666667
0.8 0.33333333 0.93333333
0.83333333 0.36666667 0.96666667
0.86666667 0.33333333 0.93333333
0.9 0.36666667 0.96666667
0.93333333 0.33333333 0.93333333
0.96666667 0.36666667 0.96666667
-0 0.4 0.93333333
0.03333333 0.43333333 0.96666667
0.06666667 0.4 0.93333333
0.1 0.43333333 0.96666667
0.13333333 0.4 0.93333333
0.16666667 0.43333333 0.96666667
0.2 0.4 0.93333333
0.23333333 0.43333333 0.96666667
0.26666667 0.4 0.93333333
0.3 0.43333333 0.96666667
0.33333333 0.4 0.93333333
0.36666667 0.43333333 0.96666667
0.4 0.4 0.93333333
0.43333333 0.43333333 0.96666667
0.46666667 0.4 0.93333333
0.5 0.43333333 0.96666667
0.53333333 0.4 0.93333333
0.56666667 0.43333333 0.96666667
0.6 0.4 0.93333333
0.63333333 0.43333333 0.96666667
0.66666667 0.4 0.93333333
0.7 0.43333333 0.96666667
0.73333333 0.4 0.93333333
0.76666667 0.43333333 0.96666667
0.8 0.4 0.93333333
0.83333333 0.43333333 0.96666667
0.86666667 0.4 0.93333333
0.9 0.43333333 0.96666667
0.93333333 0.4 0.93333333
0.96666667 0.43333333 0.96666667
-0 0.46666667 0.93333333
0.03333333 0.5 0.96666667
0.06666667 0.46666667 0.93333333
0.1 0.5 0.96666667
0.13333333 0.46666667 0.93333333
0.16666667 0.5 0.96666667
0.2 0.46666667 0.93333333
0.23333333 0.5 0.96666667
0.26666667 0.46666667 0.93333333
0.3 0.5 0.96666667
0.33333333 0.46666667 0.93333333
0.36666667 0.5 0.96666667
0.4 0.46666667 0.93333333
0.43333333 0.5 0.96666667
0.46666667 0.46666667 0.93333333
0.5 0.5 0.96666667
0.53333333 0.46666667 0.93333333
0.56666667 0.5 0.96666667
0.6 0.46666667 0.93333333
0.63333333 0.5 0.96666667
0.66666667 0.46666667 0.93333333
0.7 0.5 0.96666667
0.73333333 0.46666667 0.93333333
0.76666667 0.5 0.96666667
0.8 0.46666667 0.93333333
0.83333333 0.5 0.96666667
0.86666667 0.46666667 0.93333333
0.9 0.5 0.96666667
0.93333333 0.46666667 0.93333333
0.96666667 0.5 0.96666667
-0 0.53333333 0.93333333
0.03333333 0.56666667 0.96666667
0.06666667 0.53333333 0.93333333
0.1 0.56666667 0.96666667
0.13333333 0.53333333 0.93333333
0.16666667 0.56666667 0.96666667
0.2 0.53333333 0.93333333
0.23333333 0.56666667 0.96666667
0.26666667 0.53333333 0.93333333
0.3 0.56666667 0.96666667
0.33333333 0.53333333 0.93333333
0.36666667 0.56666667 0.96666667
0.4 0.53333333 0.93333333
0.43333333 0.56666667 0.96666667
0.46666667 0.53333333 0.93333333
0.5 0.56666667 0.96666667
0.53333333 0.53333333 0.93333333
0.56666667 0.56666667 0.96666667
0.6 0.53333333 0.93333333
0.63333333 0.56666667 0.96666667
0.66666667 0.53333333 0.93333333
0.7 0.56666667 0.96666667
0.73333333 0.53333333 0.93333333
0.76666667 0.56666667 0.96666667
0.8 0.53333333 0.93333333
0.83333333 0.56666667 0.96666667
0.86666667 0.53333333 0.93333333
0.9 0.56666667 0.96666667
0.93333333 0.53333333 0.93333333
0.96666667 0.56666667 0.96666667
-0 0.6 0.93333333
0.03333333 0.63333333 0.96666667
0.06666667 0.6 0.93333333
0.1 0.63333333 0.96666667
0.13333333 0.6 0.93333333
0.16666667 0.63333333 0.96666667
0.2 0.6 0.93333333
0.23333333 0.63333333 0.96666667
0.26666667 0.6 0.93333333
0.3 0.63333333 0.96666667
0.33333333 0.6 0.93333333
0.36666667 0.63333333 0.96666667
0.4 0.6 0.93333333
0.43333333 0.63333333 0.96666667
0.46666667 0.6 0.93333333
0.5 0.63333333 0.96666667
0.53333333 0.6 0.93333333
0.56666667 0.63333333 0.96666667
0.6 0.6 0.93333333
0.63333333 0.63333333 0.96666667
0.66666667 0.6 0.93333333
0.7 0.63333333 0.96666667
0.73333333 0.6 0.93333333
0.76666667 0.63333333 0.96666667
0.8 0.6 0.93333333
0.83333333 0.63333333 0.96666667
0.86666667 0.6 0.93333333
0.9 0.63333333 0.96666667
0.93333333 0.6 0.93333333
0.96666667 0.63333333 0.96666667
-0 0.66666667 0.93333333
0.03333333 0.7 0.96666667
0.06666667 0.66666667 0.93333333
0.1 0.7 0.96666667
0.13333333 0.66666667 0.93333333
0.16666667 0.7 0.96666667
0.2 0.66666667 0.93333333
0.23333333 0.7 0.96666667
0.26666667 0.66666667 0.93333333
0.3 0.7 0.96666667
0.33333333 0.66666667 0.93333333
0.36666667 0.7 0.96666667
0.4 0.66666667 0.93333333
0.43333333 0.7 0.96666667
0.46666667 0.66666667 0.93333333
0.5 0.7 0.96666667
0.53333333 0.66666667 0.93333333
0.56666667 0.7 0.96666667
0.6 0.66666667 0.93333333
0.63333333 0.7 0.96666667
0.66666667 0.66666667 0.93333333
0.7 0.7 0.96666667
0.73333333 0.66666667 0.93333333
0.76666667 0.7 0.96666667
0.8 0.66666667 0.93333333
0.83333333 0.7 0.96666667
0.86666667 0.66666667 0.93333333
0.9 0.7 0.96666667
0.93333333 0.66666667 0.93333333
0.96666667 0.7 0.96666667
-0 0.73333333 0.93333333
0.03333333 0.76666667 0.96666667
0.06666667 0.73333333 0.93333333
0.1 0.76666667 0.96666667
0.13333333 0.73333333 0.93333333
0.16666667 0.76666667 0.96666667
0.2 0.73333333 0.93333333
0.23333333 0.76666667 0.96666667
0.26666667 0.73333333 0.93333333
0.3 0.76666667 0.96666667
0.33333333 0.73333333 0.93333333
0.36666667 0.76666667 0.96666667
0.4 0.73333333 0.93333333
0.43333333 0.76666667 0.96666667
0.46666667 0.73333333 0.93333333
0.5 0.76666667 0.96666667
0.53333333 0.73333333 0.93333333
0.56666667 0.76666667 0.96666667
0.6 0.73333333 0.93333333
0.63333333 0.76666667 0.96666667
0.66666667 0.73333333 0.93333333
0.7 0.76666667 0.96666667
0.73333333 0.73333333 0.93333333
0.76666667 0.76666667 0.96666667
0.8 0.73333333 0.93333333
0.83333333 0.76666667 0.96666667
0.86666667 0.73333333 0.93333333
0.9 0.76666667 0.96666667
0.93333333 0.73333333 0.93333333
0.96666667 0.76666667 0.96666667
-0 0.8 0.93333333
0.03333333 0.83333333 0.96666667
0.06666667 0.8 0.93333333
0.1 0.83333333 0.96666667
0.13333333 0.8 0.93333333
0.16666667 0.83333333 0.96666667
0.2 0.8 0.93333333
0.23333333 0.83333333 0.96666667
0.26666667 0.8 0.93333333
0.3 0.83333333 0.96666667
0.33333333 0.8 0.93333333
0.36666667 0.83333333 0.96666667
0.4 0.8 0.93333333
0.43333333 0.83333333 0.96666667
0.46666667 0.8 0.93333333
0.5 0.83333333 0.96666667
0.53333333 0.8 0.93333333
0.56666667 0.83333333 0.96666667
0.6 0.8 0.93333333
0.63333333 0.83333333 0.96666667
0.66666667 0.8 0.93333333
0.7 0.83333333 0.96666667
0.73333333 0.8 0.93333333
0.76666667 0.83333333 0.96666667
0.8 0.8 0.93333333
0.83333333 0.83333333 0.96666667
0.86666667 0.8 0.93333333
0.9 0.83333333 0.96666667
0.93333333 0.8 0.93333333
0.96666667 0.83333333 0.96666667
-0 0.86666667 0.93333333
0.03333333 0.9 0.96666667
0.06666667 0.86666667 0.93333333
0.1 0.9 0.96666667
0.13333333 0.86666667 0.93333333
0.16666667 0.9 0.96666667
0.2 0.86666667 0.93333333
0.23333333 0.9 0.96666667
0.26666667 0.86666667 0.93333333
0.3 0.9 0.96666667
0.33333333 0.86666667 0.93333333
0.36666667 0.9 0.96666667
0.4 0.86666667 0.93333333
0.43333333 0.9 0.96666667
0.46666667 0.86666667 0.93333333
0.5 0.9 0.96666667
0.53333333 0.86666667 0.93333333
0.56666667 0.9 0.96666667
0.6 0.86666667 0.93333333
0.63333333 0.9 0.96666667
0.66666667 0.86666667 0.93333333
0.7 0.9 0.96666667
0.73333333 0.86666667 0.93333333
0.76666667 0.9 0.96666667
0.8 0.86666667 0.93333333
0.83333333 0.9 0.96666667
0.86666667 0.86666667 0.93333333
0.9 0.9 0.96666667
0.93333333 0.86666667 0.93333333
0.96666667 0.9 0.96666667
-0 0.93333333 0.93333333
0.03333333 0.96666667 0.96666667
0.06666667 0.93333333 0.93333333
0.1 0.96666667 0.96666667
0.13333333 0.93333333 0.93333333
0.16666667 0.96666667 0.96666667
0.2 0.93333333 0.93333333
0.23333333 0.96666667 0.96666667
0.26666667 0.93333333 0.93333333
0.3 0.96666667 0.96666667
0.33333333 0.93333333 0.93333333
0.36666667 0.96666667 0.96666667
0.4 0.93333333 0.93333333
0.43333333 0.96666667 0.96666667
0.46666667 0.93333333 0.93333333
0.5 0.96666667 0.96666667
0.53333333 0.93333333 0.93333333
0.56666667 0.96666667 0.96666667
0.6 0.93333333 0.93333333
0.63333333 0.96666667 0.96666667
0.66666667 0.93333333 0.93333333
0.7 0.96666667 0.96666667
0.73333333 0.93333333 0.93333333
0.76666667 0.96666667 0.96666667
0.8 0.93333333 0.93333333
0.83333333 0.96666667 0.96666667
0.86666667 0.93333333 0.93333333
0.9 0.96666667 0.96666667
0.93333333 0.93333333 0.93333333
0.96666667 0.96666667 0.96666667
